 vasp.4.6.28 25Jul05 complex
 executed on             LinuxIFC date 2018.11.30  16:09:54

 INCAR:
 POTCAR:   PAW_PBE Mg 05Jan2001
 POTCAR:   PAW_PBE Zn 06Sep2000
 POTCAR:   PAW_PBE Y_sv 06Sep2000
 POTCAR:   PAW_PBE Mg 05Jan2001
   VRHFIN =Mg: s2p0

   TITEL  = PAW_PBE Mg 05Jan2001
   POMASS =   24.305; ZVAL   =    2.000    mass and valenz
   ENMAX  =  210.012; ENMIN  =  157.509 eV
   QCUT   =   -3.929; QGAM   =    7.858    optimization parameters

   Description
     l     E      TYP  RCUT    TYP  RCUT
     0   .000     23  2.000
     0  2.000     23  2.000
     1   .000     23  2.000
     1  2.000     23  2.000
     2   .000     23  2.000

 POTCAR:   PAW_PBE Zn 06Sep2000
   VRHFIN =Zn: d10 p2

   TITEL  = PAW_PBE Zn 06Sep2000
   POMASS =   65.390; ZVAL   =   12.000    mass and valenz
   ENMAX  =  276.727; ENMIN  =  207.545 eV
   QCUT   =   -4.510; QGAM   =    9.020    optimization parameters

[...]

 POTCAR:   PAW_PBE Y_sv 06Sep2000
   VRHFIN =Y: 4s4p5s4d

   TITEL  = PAW_PBE Y_sv 06Sep2000
   POMASS =   88.906; ZVAL   =   11.000    mass and valenz
   ENMAX  =  211.641; ENMIN  =  158.731 eV
   QCUT   =   -3.944; QGAM   =    7.888    optimization parameters

   Description
     l     E      TYP  RCUT    TYP  RCUT
     0   .000     23  2.600
     0   .000     23  2.600
     1   .000     23  2.600
     1   .000     23  2.600
     2   .000     23  2.600
     2   .000     23  2.600
     3   .000      7   .000

 Optimization of the real space projectors (new method)

 maximal supplied QI-value         = 18.90
 optimisation between [QCUT,QGAM] = [  8.69, 17.57] = [ 21.16, 86.49] Ry
 Optimized for a Real-space Cutoff    1.50 Angstroem

   l    n(q)    QCUT    max X(q) W(low)/X(q) W(high)/X(q)  e(spline)
   0      8     8.693    21.263    0.25E-04    0.57E-05    0.11E-07
   0      8     8.693    32.896    0.17E-03    0.18E-03    0.83E-07
   1      7     8.693    18.024    0.20E-04    0.82E-04    0.23E-07
   1      7     8.693    48.877    0.92E-04    0.21E-03    0.19E-06
 Optimization of the real space projectors (new method)

[...]

   l    n(q)    QCUT    max X(q) W(low)/X(q) W(high)/X(q)  e(spline)
   2      7     8.776     5.523    0.25E-04    0.61E-04    0.37E-07
   2      7     8.776     9.671    0.20E-03    0.41E-03    0.27E-06
   0      8     8.776    11.246    0.21E-04    0.15E-05    0.57E-08
   0      8     8.776    34.692    0.16E-03    0.15E-03    0.68E-07
   1      8     8.776     4.877    0.32E-04    0.71E-04    0.29E-07
   1      8     8.776     6.599    0.91E-04    0.23E-03    0.83E-07
 Optimization of the real space projectors (new method)

 maximal supplied QI-value         = 14.36
 optimisation between [QCUT,QGAM] = [  8.76, 17.67] = [ 21.49, 87.39] Ry
 Optimized for a Real-space Cutoff    1.96 Angstroem

   l    n(q)    QCUT    max X(q) W(low)/X(q) W(high)/X(q)  e(spline)
   0     10     8.761     8.406    0.17E-04    0.25E-05    0.14E-07
   0     10     8.761    10.301    0.37E-04    0.12E-04    0.59E-07
   1     10     8.761     4.485    0.11E-05    0.41E-05    0.34E-07
   1     10     8.761    11.894    0.99E-05    0.55E-04    0.20E-06
   2      9     8.761     4.489    0.16E-04    0.99E-05    0.66E-07
   2      9     8.761    42.100    0.20E-03    0.66E-04    0.63E-06
 PAW_PBE Mg 05Jan2001                   :
 PAW_PBE Zn 06Sep2000                   :
 PAW_PBE Y_sv 06Sep2000                 :

 POSCAR: New structure
  positions in direct lattice
  velocities in cartesian coordinates

 ion  position               nearest neighbor table
   1  1.000  0.165  0.999-  14 3.17   2 3.17  12 3.17  21 3.17   7 3.19   5 3.19 270 3.21 262 3.21
                           263 3.22  11 3.23   4 3.24 280 3.56
   2  0.165  1.000  0.999-  15 3.17   1 3.17  12 3.17  17 3.17   3 3.19   5 3.19 265 3.21 264 3.21
                           263 3.22   8 3.23   6 3.24 280 3.56
   3  1.000  0.668  0.999-  17 3.13  23 3.15 273 3.17 265 3.18 266 3.18   4 3.18  11 3.18  12 3.18
                             2 3.19  10 3.23   8 3.24  13 3.26
   4  0.165  0.502  0.999-  14 3.11  11 3.17   3 3.18 266 3.18 262 3.18   8 3.19   9 3.20 267 3.21
                            18 3.21  13 3.22   5 3.23   1 3.24
   5  0.332  0.332  0.998-  15 3.14  14 3.14 263 3.17 268 3.17 267 3.17  10 3.18   9 3.18   2 3.19
                             1 3.19   6 3.23   4 3.23  19 3.26
   6  0.502  0.165  0.999-  15 3.11   8 3.17   7 3.18 269 3.18 264 3.18  11 3.19  10 3.20 268 3.21
                            20 3.21  16 3.22   5 3.23   2 3.24
   7  0.668  1.000  0.999-  21 3.13  22 3.15 271 3.17 270 3.18 269 3.18   6 3.18   8 3.18  12 3.18
                             1 3.19   9 3.23  11 3.24  16 3.26
   8  0.337  0.835  0.999-  17 3.11   6 3.17 271 3.18   7 3.18 264 3.19   4 3.19   9 3.20 266 3.20
                            18 3.21  16 3.21   2 3.23   3 3.24
   9  0.498  0.663  0.999-  22 3.12  10 3.17   5 3.18 267 3.19 272 3.19   8 3.20   4 3.20  18 3.20
                           271 3.21  19 3.22   7 3.23  12 3.23
  10  0.663  0.498  0.999-  23 3.12   9 3.17   5 3.18 268 3.19 272 3.19  11 3.20   6 3.20  20 3.20
                           273 3.21  19 3.22   3 3.23  12 3.23
  11  0.835  0.337  0.999-  21 3.11   4 3.17 273 3.18   3 3.18 262 3.19   6 3.19  10 3.20 269 3.20
                            20 3.21  13 3.21   1 3.23   7 3.24
  12  0.835  0.835  1.000-   2 3.17   1 3.17  23 3.17  22 3.17   3 3.18   7 3.18 272 3.21 270 3.22
                           265 3.22   9 3.23  10 3.23 280 3.55
  13  1.000  0.501  0.041-  17 3.13  29 3.13  23 3.13  24 3.13  14 3.20  21 3.20  20 3.20  18 3.20
                            11 3.21   4 3.22   3 3.26 281 3.65
  14  0.173  0.342  0.039- 274 2.74   4 3.11  18 3.12  19 3.12   5 3.14   1 3.17  13 3.20  15 3.23
                            24 3.32 280 3.33  21 3.33 282 3.35
  15  0.342  0.173  0.039- 275 2.74   6 3.11  20 3.12  19 3.12   5 3.14   2 3.17  16 3.20  14 3.23
                            25 3.32 280 3.33  17 3.33 282 3.35
  16  0.501  1.000  0.041-  21 3.13  26 3.13  22 3.13  25 3.13  15 3.20  17 3.20  18 3.20  20 3.20
                             8 3.21   6 3.22   7 3.26 283 3.65
  17  0.168  0.826  0.039- 275 2.74   8 3.11  18 3.12  13 3.13   3 3.13   2 3.17  16 3.20  23 3.23
                           280 3.33  26 3.33  15 3.33 281 3.34
  18  0.334  0.667  0.041-  22 3.12  17 3.12  14 3.12  24 3.15  26 3.16  27 3.17  19 3.20  16 3.20
                             9 3.20  13 3.20   4 3.21   8 3.21
  19  0.498  0.498  0.042-  14 3.12  15 3.12  28 3.13  27 3.13  18 3.20  20 3.20  22 3.20  23 3.20
                            10 3.22   9 3.22   5 3.26 282 3.64
  20  0.667  0.334  0.041-  23 3.12  21 3.12  15 3.12  25 3.15  29 3.16  28 3.17  19 3.20  13 3.20
                            10 3.20  16 3.20   6 3.21  11 3.21
  21  0.826  0.168  0.039- 274 2.74  11 3.11  20 3.12  16 3.13   7 3.13   1 3.17  13 3.20  22 3.23
                           280 3.33  29 3.33  14 3.33 283 3.34
  22  0.658  0.831  0.040- 276 2.75  18 3.12   9 3.12  16 3.13   7 3.15  12 3.17  19 3.20  21 3.23
                            27 3.31  23 3.32 280 3.33 283 3.34
  23  0.831  0.658  0.040- 276 2.75  20 3.12  10 3.12  13 3.13   3 3.15  12 3.17  19 3.20  17 3.23
                            28 3.31  22 3.32 280 3.33 281 3.34
  24  0.167  0.513  0.083- 274 2.77  30 3.09  26 3.10  27 3.10  13 3.13  18 3.15  29 3.19 284 3.32
                            14 3.32  31 3.33 282 3.38 281 3.53
  25  0.513  0.167  0.083- 275 2.77  33 3.09  29 3.10  28 3.10  16 3.13  20 3.15  26 3.19 285 3.32
                            15 3.32  32 3.33 282 3.38 283 3.53
  26  0.348  0.835  0.083- 275 2.77  34 3.10  27 3.10  24 3.10  16 3.13  18 3.16  25 3.19 285 3.32
                            17 3.33  30 3.34 281 3.39 283 3.52
  27  0.489  0.654  0.083- 276 2.77  31 3.09  26 3.10  24 3.10  19 3.13  28 3.16  18 3.17  22 3.31
                           286 3.34  34 3.36 283 3.39 282 3.54
  28  0.654  0.489  0.083- 276 2.77  32 3.09  29 3.10  25 3.10  19 3.13  27 3.16  20 3.17  23 3.31
                           286 3.34  35 3.36 281 3.39 282 3.54
  29  0.835  0.348  0.083- 274 2.77  35 3.10  28 3.10  25 3.10  13 3.13  20 3.16  24 3.19 284 3.32
                            21 3.33  33 3.34 283 3.39 281 3.52
  30  0.167  0.654  0.125- 278 2.76  31 3.09  24 3.09  34 3.10  36 3.12  35 3.18  41 3.23  40 3.30
                           281 3.32  26 3.34 285 3.39 284 3.54
  31  0.346  0.512  0.125- 277 2.77  27 3.09  30 3.09  42 3.10  34 3.11  41 3.18  32 3.19 282 3.32
                            24 3.33  37 3.36 284 3.38 286 3.54
  32  0.512  0.346  0.125- 277 2.77  28 3.09  33 3.09  42 3.10  35 3.11  43 3.18  31 3.19 282 3.32
                            25 3.33  38 3.36 285 3.38 286 3.54
  33  0.654  0.167  0.125- 279 2.76  32 3.09  25 3.09  35 3.10  39 3.12  34 3.18  43 3.23  44 3.30
                           283 3.32  29 3.34 284 3.39 285 3.54
  34  0.488  0.836  0.126- 279 2.77  30 3.10  26 3.10  31 3.11  39 3.14  33 3.18  41 3.18  45 3.28
                           283 3.34  27 3.36 286 3.39 285 3.53
  35  0.836  0.488  0.126- 278 2.77  33 3.10  29 3.10  32 3.11  36 3.14  30 3.18  43 3.18  46 3.28
                           281 3.34  28 3.36 286 3.39 284 3.53
  36  0.005  0.501  0.167-  37 3.09  44 3.11  30 3.12  35 3.14  46 3.18  40 3.18  41 3.20  50 3.21
                            57 3.24  47 3.26  43 3.26 284 3.67
  37  0.164  0.338  0.169- 277 2.73  36 3.09  51 3.11  47 3.14  41 3.16  56 3.17  44 3.20  42 3.20
                           287 3.30  38 3.33 284 3.35  31 3.36
  38  0.338  0.164  0.169- 277 2.73  39 3.09  52 3.11  48 3.14  43 3.16  56 3.17  40 3.20  42 3.20
                           287 3.30  37 3.33 285 3.35  32 3.36
  39  0.501  0.005  0.167-  38 3.09  40 3.11  33 3.12  34 3.14  45 3.18  44 3.18  43 3.20  53 3.21
                            55 3.24  48 3.26  41 3.26 285 3.67
  40  0.177  0.831  0.169- 278 2.76  39 3.11  41 3.13  50 3.13  48 3.14  36 3.18  49 3.18  38 3.20
                            30 3.30  46 3.30 285 3.36 287 3.36
  41  0.338  0.666  0.168-  45 3.09  40 3.13  42 3.15  37 3.16  31 3.18  34 3.18  55 3.19  36 3.20
                            51 3.21  50 3.21  30 3.23  39 3.26
  42  0.497  0.497  0.166-  31 3.10  32 3.10  41 3.15  43 3.15  37 3.20  38 3.20  45 3.23  46 3.23
                           288 3.26  51 3.30  52 3.30 286 3.63
  43  0.666  0.338  0.168-  46 3.09  44 3.13  42 3.15  38 3.16  32 3.18  35 3.18  57 3.19  39 3.20
                            52 3.21  53 3.21  33 3.23  36 3.26
  44  0.831  0.177  0.169- 279 2.76  36 3.11  43 3.13  53 3.13  47 3.14  39 3.18  54 3.18  37 3.20
                            33 3.30  45 3.30 284 3.36 287 3.36
  45  0.660  0.834  0.168- 279 2.71  41 3.09  55 3.15  54 3.15  39 3.18 288 3.19  42 3.23  34 3.28
                           287 3.29  44 3.30 286 3.33  46 3.34
  46  0.834  0.660  0.168- 278 2.71  43 3.09  57 3.15  49 3.15  36 3.18 288 3.19  42 3.23  35 3.28
                           287 3.29  40 3.30 286 3.33  45 3.34
  47  0.999  0.331  0.210-  37 3.14  44 3.14  57 3.15  68 3.16  51 3.16  54 3.16  65 3.17  58 3.17
                            50 3.19  56 3.19  53 3.22  36 3.26
[...]
    -5.540946024  9.600665711 -0.002967328    -0.000016268  0.104150069  0.000048048
    -0.016622883 -0.028791678 62.403597513     0.000004289  0.000007428  0.016024722

  length of vectors
    11.084893944 11.084893944 62.403606369     0.104150082  0.104150082  0.016024724

 FORCES acting on ions
    electron-ion (+dipol)            ewald-force                    non-local-force                 convergence-correction
   0.578E+01 -.980E+01 0.198E+03   -.568E+01 0.964E+01 -.198E+03   -.956E-01 0.168E+00 -.462E+00   0.932E-04 0.299E-05 -.854E-02
   -.114E+02 0.995E-01 0.198E+03   0.112E+02 -.101E+00 -.198E+03   0.193E+00 0.136E-02 -.462E+00   -.418E-04 0.826E-04 -.853E-02
   -.427E+01 0.778E+01 0.183E+03   0.432E+01 -.786E+01 -.183E+03   -.508E-01 0.823E-01 -.995E-02   0.155E-05 -.423E-04 -.848E-02
   0.303E-02 -.493E+01 0.178E+03   0.267E-01 0.479E+01 -.178E+03   -.325E-01 0.134E+00 -.175E+00   0.981E-04 0.290E-04 -.845E-02
   -.440E+01 -.762E+01 0.183E+03   0.445E+01 0.771E+01 -.183E+03   -.520E-01 -.900E-01 -.846E-03   0.284E-04 0.451E-04 -.843E-02
   -.427E+01 -.246E+01 0.178E+03   0.414E+01 0.242E+01 -.178E+03   0.132E+00 0.389E-01 -.175E+00   -.247E-04 0.988E-04 -.845E-02
   0.887E+01 0.191E+00 0.183E+03   -.897E+01 -.187E+00 -.183E+03   0.966E-01 -.284E-02 -.995E-02   -.396E-04 -.197E-04 -.848E-02
   -.435E+01 0.260E+01 0.178E+03   0.421E+01 -.256E+01 -.178E+03   0.137E+00 -.341E-01 -.181E+00   0.655E-04 -.575E-04 -.848E-02
   0.429E+01 0.260E+01 0.178E+03   -.419E+01 -.250E+01 -.178E+03   -.974E-01 -.105E+00 -.182E+00   -.575E-04 -.114E-03 -.845E-02
   0.106E+00 0.501E+01 0.178E+03   -.661E-01 -.488E+01 -.178E+03   -.420E-01 -.137E+00 -.182E+00   -.705E-04 -.109E-03 -.845E-02
   0.442E+01 -.246E+01 0.178E+03   -.433E+01 0.237E+01 -.178E+03   -.978E-01 0.101E+00 -.181E+00   -.859E-04 0.266E-04 -.848E-02
   0.590E+01 0.102E+02 0.198E+03   -.580E+01 -.100E+02 -.198E+03   -.100E+00 -.174E+00 -.473E+00   0.554E-05 0.909E-05 -.855E-02
   0.146E+01 -.221E+01 0.173E+03   -.162E+01 0.249E+01 -.173E+03   0.157E+00 -.266E+00 -.336E+00   0.178E-04 0.345E-04 -.634E-02
   -.830E+01 -.472E+02 0.205E+03   0.826E+01 0.464E+02 -.204E+03   0.395E-01 0.787E+00 -.962E+00   0.223E-03 0.308E-03 -.671E-02
   -.368E+02 -.308E+02 0.205E+03   0.361E+02 0.304E+02 -.204E+03   0.662E+00 0.428E+00 -.962E+00   0.159E-03 0.345E-03 -.671E-02
   -.264E+01 0.159E+00 0.173E+03   0.296E+01 -.159E+00 -.173E+03   -.309E+00 0.293E-02 -.336E+00   0.188E-04 0.346E-04 -.634E-02
   -.366E+02 0.309E+02 0.205E+03   0.360E+02 -.305E+02 -.204E+03   0.666E+00 -.418E+00 -.969E+00   0.200E-03 -.171E-03 -.681E-02
   -.212E+00 0.924E-01 0.163E+03   0.216E+00 -.949E-01 -.163E+03   -.371E-02 0.308E-02 -.651E-01   0.802E-04 -.120E-03 -.623E-02
   0.928E+00 0.161E+01 0.173E+03   -.108E+01 -.187E+01 -.173E+03   0.152E+00 0.264E+00 -.371E+00   -.920E-04 -.163E-03 -.627E-02
   0.186E+00 -.137E+00 0.163E+03   -.190E+00 0.139E+00 -.163E+03   0.452E-02 -.167E-02 -.651E-01   -.148E-03 0.565E-05 -.623E-02
   0.451E+02 -.163E+02 0.205E+03   -.444E+02 0.159E+02 -.204E+03   -.695E+00 0.368E+00 -.969E+00   -.252E-03 0.846E-04 -.681E-02
   0.449E+02 0.174E+02 0.205E+03   -.442E+02 -.171E+02 -.204E+03   -.699E+00 -.366E+00 -.977E+00   -.296E-03 -.168E-03 -.679E-02
   -.735E+01 0.476E+02 0.205E+03   0.732E+01 -.468E+02 -.204E+03   0.324E-01 -.788E+00 -.977E+00   0.901E-06 -.340E-03 -.679E-02
   -.488E+01 -.511E+02 0.819E+02   0.495E+01 0.503E+02 -.815E+02   -.706E-01 0.762E+00 -.424E+00   0.158E-03 0.418E-03 -.161E-02
   -.418E+02 -.298E+02 0.819E+02   0.411E+02 0.294E+02 -.815E+02   0.695E+00 0.320E+00 -.424E+00   0.281E-03 0.342E-03 -.161E-02
   -.418E+02 0.296E+02 0.816E+02   0.411E+02 -.293E+02 -.811E+02   0.735E+00 -.304E+00 -.421E+00   0.467E-03 -.257E-03 -.157E-02
   0.463E+02 0.219E+02 0.820E+02   -.457E+02 -.214E+02 -.816E+02   -.608E+00 -.440E+00 -.412E+00   -.521E-03 -.467E-03 -.170E-02
   -.421E+01 0.511E+02 0.820E+02   0.429E+01 -.503E+02 -.816E+02   -.767E-01 -.747E+00 -.412E+00   -.147E-03 -.688E-03 -.170E-02
   0.465E+02 -.214E+02 0.816E+02   -.459E+02 0.210E+02 -.811E+02   -.630E+00 0.485E+00 -.421E+00   -.462E-03 0.271E-03 -.157E-02
   -.470E+02 0.218E+02 -.593E+02   0.463E+02 -.213E+02 0.588E+02   0.699E+00 -.475E+00 0.437E+00   0.483E-03 -.266E-03 0.451E-02
   0.598E+01 -.506E+02 -.569E+02   -.602E+01 0.498E+02 0.565E+02   0.344E-01 0.780E+00 0.362E+00   -.765E-04 0.409E-03 0.431E-02
   -.468E+02 -.201E+02 -.569E+02   0.461E+02 0.197E+02 0.565E+02   0.658E+00 0.420E+00 0.362E+00   0.392E-03 0.134E-03 0.431E-02
   0.423E+02 -.298E+02 -.593E+02   -.416E+02 0.295E+02 0.588E+02   -.761E+00 0.367E+00 0.437E+00   -.475E-03 0.278E-03 0.451E-02
   0.432E+02 0.288E+02 -.587E+02   -.425E+02 -.285E+02 0.583E+02   -.757E+00 -.304E+00 0.382E+00   -.587E-03 -.229E-03 0.450E-02
   0.334E+01 0.518E+02 -.587E+02   -.345E+01 -.510E+02 0.583E+02   0.115E+00 -.808E+00 0.382E+00   0.923E-04 -.626E-03 0.450E-02
   -.368E+01 0.285E+01 -.154E+03   0.378E+01 -.310E+01 0.153E+03   -.914E-01 0.241E+00 0.380E+00   0.103E-03 -.599E-04 0.911E-02
   0.110E+02 -.460E+02 -.186E+03   -.110E+02 0.452E+02 0.185E+03   0.727E-02 0.787E+00 0.100E+01   -.644E-04 0.367E-03 0.966E-02
   -.453E+02 -.134E+02 -.186E+03   0.446E+02 0.130E+02 0.185E+03   0.678E+00 0.400E+00 0.100E+01   0.352E-03 0.127E-03 0.966E-02
   0.431E+01 -.177E+01 -.154E+03   -.457E+01 0.172E+01 0.153E+03   0.254E+00 0.412E-01 0.380E+00   -.101E-03 0.569E-04 0.911E-02
   -.472E+02 0.152E+02 -.184E+03   0.464E+02 -.148E+02 0.184E+03   0.765E+00 -.351E+00 0.929E+00   0.477E-03 -.103E-03 0.954E-02
   0.741E+01 -.249E+00 -.141E+03   -.757E+01 0.249E+00 0.141E+03   0.159E+00 0.185E-02 0.153E+00   -.730E-04 -.211E-04 0.917E-02
   0.396E+01 0.686E+01 -.139E+03   -.367E+01 -.636E+01 0.139E+03   -.290E+00 -.502E+00 -.147E+00   -.228E-04 -.357E-04 0.927E-02
   -.392E+01 0.629E+01 -.141E+03   0.400E+01 -.643E+01 0.141E+03   -.781E-01 0.139E+00 0.153E+00   0.165E-04 -.794E-04 0.917E-02
   0.367E+02 -.333E+02 -.184E+03   -.361E+02 0.328E+02 0.184E+03   -.686E+00 0.487E+00 0.929E+00   -.328E-03 0.356E-03 0.954E-02
   0.451E+02 0.195E+02 -.171E+03   -.442E+02 -.193E+02 0.171E+03   -.853E+00 -.231E+00 0.454E+00   -.448E-03 -.250E-03 0.961E-02
   -.564E+01 0.488E+02 -.171E+03   0.542E+01 -.479E+02 0.171E+03   0.226E+00 -.854E+00 0.454E+00   0.330E-05 -.510E-03 0.961E-02
   0.461E+01 -.769E+01 -.174E+03   -.461E+01 0.775E+01 0.174E+03   0.130E-02 -.656E-01 0.449E-01   0.206E-04 0.100E-03 0.115E-01
   -.897E+01 0.150E+00 -.174E+03   0.902E+01 -.115E+00 0.174E+03   -.574E-01 -.317E-01 0.449E-01   0.793E-04 0.675E-04 0.115E-01
   -.240E+02 -.478E+00 -.189E+03   0.233E+02 0.237E+00 0.188E+03   0.669E+00 0.233E+00 0.484E+00   0.897E-04 -.298E-04 0.117E-01
   -.411E+01 0.230E+01 -.169E+03   0.400E+01 -.222E+01 0.169E+03   0.115E+00 -.839E-01 0.154E+00   0.155E-03 -.505E-04 0.115E-01
   0.179E+02 0.513E+01 -.169E+03   -.175E+02 -.498E+01 0.169E+03   -.460E+00 -.148E+00 0.855E-01   0.101E-03 0.911E-04 0.116E-01
   -.452E+01 0.181E+02 -.169E+03   0.442E+01 -.176E+02 0.169E+03   0.102E+00 -.472E+00 0.855E-01   0.264E-04 0.131E-03 0.116E-01
   0.405E+01 -.241E+01 -.169E+03   -.393E+01 0.236E+01 0.169E+03   -.130E+00 0.580E-01 0.154E+00   -.121E-03 0.104E-03 0.115E-01
   0.116E+02 -.210E+02 -.189E+03   -.115E+02 0.203E+02 0.188E+03   -.132E+00 0.696E+00 0.484E+00   -.737E-04 0.617E-04 0.117E-01
   0.220E+02 -.810E+01 -.169E+03   -.213E+02 0.786E+01 0.169E+03   -.746E+00 0.249E+00 0.135E+00   -.719E-04 -.141E-03 0.116E-01
   -.584E+01 -.101E+02 -.189E+03   0.575E+01 0.996E+01 0.189E+03   0.828E-01 0.143E+00 0.551E+00   0.909E-04 0.158E-03 0.116E-01
   -.180E+02 0.150E+02 -.169E+03   0.174E+02 -.145E+02 0.169E+03   0.589E+00 -.521E+00 0.135E+00   -.862E-04 -.134E-03 0.116E-01
   -.240E+01 0.923E+00 -.165E+03   0.232E+01 -.978E+00 0.164E+03   0.818E-01 0.514E-01 0.442E-01   0.647E-04 -.711E-04 0.121E-01
   0.200E+01 -.162E+01 -.165E+03   -.201E+01 0.152E+01 0.164E+03   0.358E-02 0.965E-01 0.442E-01   -.929E-04 0.188E-04 0.121E-01
   0.715E+01 -.157E+00 -.167E+03   -.717E+01 0.165E+00 0.167E+03   0.214E-01 -.989E-02 0.439E-01   0.418E-04 -.322E-04 0.120E-01
[...]
   -.326E+03 -.988E+00 0.735E+03   0.323E+03 0.960E+00 -.732E+03   0.304E+01 0.281E-01 -.282E+01   0.375E-02 0.177E-02 -.194E-01
   0.163E+03 0.283E+03 0.723E+03   -.162E+03 -.281E+03 -.720E+03   -.149E+01 -.259E+01 -.270E+01   -.212E-02 -.366E-02 -.205E-01
   -.159E+03 -.276E+03 -.599E+03   0.158E+03 0.273E+03 0.596E+03   0.155E+01 0.268E+01 0.298E+01   0.212E-02 0.364E-02 0.345E-01
   -.176E+03 0.276E+03 -.582E+03   0.175E+03 -.273E+03 0.579E+03   0.164E+01 -.263E+01 0.272E+01   0.375E-02 -.346E-02 0.357E-01
   0.327E+03 -.151E+02 -.582E+03   -.324E+03 0.150E+02 0.579E+03   -.310E+01 0.106E+00 0.272E+01   -.490E-02 0.150E-02 0.357E-01
   0.107E+01 0.185E+01 0.115E+04   -.107E+01 -.185E+01 -.115E+04   0.286E-02 0.496E-02 -.170E+01   0.271E-03 0.449E-03 -.372E-01
   -.187E+03 0.326E+03 0.448E+03   0.186E+03 -.325E+03 -.448E+03   0.637E+00 -.118E+01 -.447E+00   0.286E-02 -.475E-02 -.693E-02
   -.187E+03 -.324E+03 0.445E+03   0.186E+03 0.323E+03 -.445E+03   0.635E+00 0.110E+01 -.390E+00   0.273E-02 0.467E-02 -.696E-02
   0.376E+03 0.110E+01 0.448E+03   -.375E+03 -.106E+01 -.448E+03   -.134E+01 -.357E-01 -.447E+00   -.557E-02 0.875E-04 -.692E-02
   0.185E+03 -.327E+03 -.316E+03   -.184E+03 0.325E+03 0.316E+03   -.602E+00 0.111E+01 0.375E+00   -.235E-02 0.480E-02 0.229E-01
   -.375E+03 -.320E+01 -.316E+03   0.374E+03 0.317E+01 0.316E+03   0.126E+01 0.325E-01 0.375E+00   0.537E-02 0.380E-03 0.229E-01
   0.186E+03 0.322E+03 -.308E+03   -.185E+03 -.321E+03 0.307E+03   -.686E+00 -.119E+01 0.626E+00   -.295E-02 -.507E-02 0.233E-01
   -.139E+02 -.240E+02 -.102E+04   0.138E+02 0.240E+02 0.102E+04   0.294E-01 0.509E-01 0.180E+01   0.969E-03 0.170E-02 0.521E-01
   0.245E+02 0.424E+02 -.955E+03   -.244E+02 -.422E+02 0.955E+03   -.702E-01 -.122E+00 -.885E-01   -.154E-02 -.262E-02 0.654E-01
   -.172E+00 -.303E+00 -.560E+00   0.139E-12 0.298E-12 0.296E-11   0.175E+00 0.304E+00 0.405E+00   0.162E-02 0.283E-02 0.143E+00

 POSITION                                       TOTAL-FORCE (eV/Angst)
     10.15305      1.55757     62.35933        -0.001999      0.002628      0.000244
     -3.72763      9.57159     62.35933         0.003276     -0.000417      0.000244
      7.36281      6.38576     62.30735         0.002322     -0.001178      0.004052
     -0.96730      4.79294     62.33996        -0.002731     -0.001210     -0.004562
      1.82378      3.15888     62.30550         0.001506      0.002608      0.007323
      4.63445      1.55877     62.33996         0.000318     -0.002970     -0.004562
      1.84882      9.56926     62.30735        -0.002181      0.001422      0.004052
     -0.91033      7.98541     62.33860         0.002937      0.001929     -0.006548
      1.82884      6.33993     62.34643         0.001358     -0.002098     -0.007982
      4.57612      4.75379     62.34643        -0.002496      0.000127     -0.007982
      7.37073      3.20434     62.33860         0.000202      0.003508     -0.006548
      4.61199      7.98820     62.36885        -0.001390     -0.002407     -0.005704
      8.30714      4.80942      2.58020        -0.002564      0.010684      0.000454
      0.02717      3.28022      2.46038         0.000932      0.001471      0.000246
      2.82718      1.66364      2.46038         0.000808      0.001542      0.000246
      0.01151      9.59890      2.58020         0.010534      0.003122      0.000454
     -2.71428      7.92967      2.46014        -0.001772      0.001655      0.000553
      0.00321      6.40019      2.56179        -0.000054      0.000521     -0.001484
      2.76189      4.78373      2.58805        -0.001596     -0.002764     -0.008804
      5.54112      3.20287      2.56179         0.000478      0.000214     -0.001484
      8.22444      1.61420      2.46014         0.002319     -0.000706      0.000553
      2.69063      7.98116      2.47777         0.000422      0.003584     -0.000929
      5.56657      6.32074      2.47777         0.002893      0.002157     -0.000929
     -0.99546      4.92221      5.15804        -0.003633      0.006073      0.009644
      4.76049      1.59902      5.15804         0.007076     -0.000110      0.009644
     -0.76855      8.01323      5.16298         0.011460     -0.001606      0.004297
      1.79643      6.27401      5.16720        -0.002368      0.000284      0.002347
      4.53523      4.69276      5.16720         0.001430     -0.001908      0.002347
      7.32394      3.34103      5.16298        -0.007121      0.009122      0.004297
     -1.77696      6.27424      7.82861         0.005253      0.000087     -0.006047
      0.99789      4.91681      7.82252        -0.002816      0.004565     -0.010373
      3.75914      3.32260      7.82252         0.005361     -0.000156     -0.010373
      6.32213      1.59823      7.82861        -0.002551      0.004592     -0.006047
      0.77896      8.02161      7.84491        -0.008291      0.001761     -0.002879
      6.55744      4.68540      7.84491         0.005671     -0.006300     -0.002879
     -2.71838      4.80065     10.41485         0.003949     -0.007149      0.001913
     -0.05166      3.23793     10.53150        -0.002343     -0.004470      0.003950
      2.82996      1.57423     10.53150        -0.002699     -0.004264      0.003950
      5.51668      0.04614     10.41485        -0.008165     -0.000155      0.001913
     -2.64246      7.97614     10.51484        -0.001676     -0.001454     -0.002346
      0.05693      6.39101     10.47992        -0.001276      0.001876     -0.000364
      2.75404      4.77013     10.37335         0.002792      0.004836     -0.005417
      5.50632      3.24480     10.47992         0.002263     -0.000168     -0.000364
      8.22877      1.69963     10.51484        -0.000421     -0.002179     -0.002346
      2.69128      7.99956     10.50378         0.003020      0.010730     -0.007781
      5.58218      6.33050     10.50378         0.007782      0.007980     -0.007781
      9.23121      3.17718     13.09642         0.005755     -0.003224     -0.002839
     -1.86408      9.58305     13.09642        -0.005670      0.003372     -0.002839
     -4.59626      7.99598     13.02515        -0.000908     -0.007798      0.005302
     -1.83007      6.36242     13.07375         0.007259     -0.008196     -0.001811
      0.89349      4.73420     13.09476         0.001233      0.000391      0.001859
      3.65319      3.14088     13.09476        -0.000278      0.001263      0.001859
      6.42504      1.59633     13.07375        -0.010727      0.002188     -0.001811
      9.22286      0.01751     13.02515        -0.006299     -0.004685      0.005302
      0.88006      8.04673     13.07464        -0.005183      0.004238      0.005706
      0.89082      1.54296     13.03907        -0.002707     -0.004688      0.002366
      6.52865      4.78552     13.07464         0.006262     -0.002370      0.005706
     -2.73535      4.79167     15.68112         0.001785     -0.004420     -0.002832
      5.51738      0.02695     15.68112        -0.004721     -0.000665     -0.002832
      0.05898      6.39279     15.63029        -0.001535     -0.001941      0.002680
[...]
      9.80069      2.21945      4.61509         0.000013      0.005711      0.014088
     -2.97825      9.59738      4.61509         0.004939      0.002866      0.014088
      4.27594      7.40615      4.65222        -0.005539     -0.009594      0.006101
      1.27889      2.21511      8.37661         0.003472      0.006014     -0.010956
     -4.24762      7.39411      8.35140        -0.005357     -0.004284     -0.006608
      8.52730      0.01851      8.35140        -0.001031     -0.006781     -0.006608
      0.00026      0.00045      3.01711        -0.000797     -0.001380      0.002448
     -3.94233      6.85017      5.37461         0.005799     -0.008433     -0.012150
      1.58639      2.74770      5.37325         0.008538      0.014788     -0.001301
      7.90358      0.01092      5.37461        -0.010203      0.000805     -0.012150
     -1.58084      2.74871      7.59433         0.000544      0.013718      0.003758
      3.17088      0.00531      7.59433         0.011608      0.007330      0.003758
      3.95451      6.84942      7.64601        -0.005529     -0.009576      0.009990
      5.53044      9.57900      9.99688        -0.002826     -0.004894      0.017565
      3.67409      6.36371     13.06122        -0.000883     -0.001530     -0.012250
    total drift:                                0.004919      0.003329     -0.011663

 mean value of Nose-termostat <S>:     1.000 mean value of <T> :     0.000
 mean temperature <T/S>/<1/S>  :     0.000