 vasp.4.6.28 25Jul05 complex
 executed on             LinuxIFC date 2013.11.11  13:23:05

 INCAR:
 POTCAR:   PAW_PBE Mg 05Jan2001
 POTCAR:   PAW_PBE Zn 06Sep2000
 POTCAR:   PAW_PBE Y_sv 06Sep2000
 POTCAR:   PAW_PBE Mg 05Jan2001
   VRHFIN =Mg: s2p0

   TITEL  = PAW_PBE Mg 05Jan2001
   POMASS =   24.305; ZVAL   =    2.000    mass and valenz
   ENMAX  =  210.012; ENMIN  =  157.509 eV
   QCUT   =   -3.929; QGAM   =    7.858    optimization parameters

   Description
     l     E      TYP  RCUT    TYP  RCUT
     0   .000     23  2.000
     0  2.000     23  2.000
     1   .000     23  2.000
     1  2.000     23  2.000
     2   .000     23  2.000

 POTCAR:   PAW_PBE Zn 06Sep2000
   VRHFIN =Zn: d10 p2

   TITEL  = PAW_PBE Zn 06Sep2000
   POMASS =   65.390; ZVAL   =   12.000    mass and valenz
   ENMAX  =  276.727; ENMIN  =  207.545 eV
   QCUT   =   -4.510; QGAM   =    9.020    optimization parameters

[...]

 POTCAR:   PAW_PBE Y_sv 06Sep2000
   VRHFIN =Y: 4s4p5s4d

   TITEL  = PAW_PBE Y_sv 06Sep2000
   POMASS =   88.906; ZVAL   =   11.000    mass and valenz
   ENMAX  =  211.641; ENMIN  =  158.731 eV
   QCUT   =   -3.944; QGAM   =    7.888    optimization parameters

   Description
     l     E      TYP  RCUT    TYP  RCUT
     0   .000     23  2.600
     0   .000     23  2.600
     1   .000     23  2.600
     1   .000     23  2.600
     2   .000     23  2.600
     2   .000     23  2.600
     3   .000      7   .000

 Optimization of the real space projectors (new method)

 maximal supplied QI-value         = 18.90
 optimisation between [QCUT,QGAM] = [  8.69, 17.57] = [ 21.16, 86.49] Ry
 Optimized for a Real-space Cutoff    1.50 Angstroem

   l    n(q)    QCUT    max X(q) W(low)/X(q) W(high)/X(q)  e(spline)
   0      8     8.693    21.263    0.25E-04    0.57E-05    0.11E-07
   0      8     8.693    32.896    0.17E-03    0.18E-03    0.83E-07
   1      7     8.693    18.024    0.20E-04    0.82E-04    0.23E-07
   1      7     8.693    48.877    0.92E-04    0.21E-03    0.19E-06
 Optimization of the real space projectors (new method)

[...]

   l    n(q)    QCUT    max X(q) W(low)/X(q) W(high)/X(q)  e(spline)
   2      7     8.776     5.523    0.25E-04    0.61E-04    0.37E-07
   2      7     8.776     9.671    0.20E-03    0.41E-03    0.27E-06
   0      8     8.776    11.246    0.21E-04    0.15E-05    0.57E-08
   0      8     8.776    34.692    0.16E-03    0.15E-03    0.68E-07
   1      8     8.776     4.877    0.32E-04    0.71E-04    0.29E-07
   1      8     8.776     6.599    0.91E-04    0.23E-03    0.83E-07
 Optimization of the real space projectors (new method)

 maximal supplied QI-value         = 14.36
 optimisation between [QCUT,QGAM] = [  8.76, 17.67] = [ 21.49, 87.39] Ry
 Optimized for a Real-space Cutoff    1.96 Angstroem

   l    n(q)    QCUT    max X(q) W(low)/X(q) W(high)/X(q)  e(spline)
   0     10     8.761     8.406    0.17E-04    0.25E-05    0.14E-07
   0     10     8.761    10.301    0.37E-04    0.12E-04    0.59E-07
   1     10     8.761     4.485    0.11E-05    0.41E-05    0.34E-07
   1     10     8.761    11.894    0.99E-05    0.55E-04    0.20E-06
   2      9     8.761     4.489    0.16E-04    0.99E-05    0.66E-07
   2      9     8.761    42.100    0.20E-03    0.66E-04    0.63E-06
 PAW_PBE Mg 05Jan2001                   :
 PAW_PBE Zn 06Sep2000                   :
 PAW_PBE Y_sv 06Sep2000                 :

 POSCAR: New structure
  positions in direct lattice
  velocities in cartesian coordinates

 ion  position               nearest neighbor table
   1  0.013  0.508  0.999-  12 3.09   9 3.14   2 3.18   8 3.18  58 3.19  47 3.19  51 3.23   6 3.25
                            11 3.25  17 3.25   5 3.27  66 3.50
   2  0.187  0.354  0.992-  48 3.10  52 3.13  47 3.13  13 3.14   6 3.16   1 3.18   7 3.21   3 3.24
                             9 3.27  65 3.30  66 3.32
   3  0.354  0.187  0.992-  48 3.10  53 3.13  49 3.13  14 3.14   8 3.16   4 3.18   7 3.21   2 3.24
                             5 3.27  65 3.30  67 3.32
   4  0.508  0.013  0.999-  15 3.09   5 3.14   3 3.18   6 3.18  56 3.19  49 3.19  54 3.23   8 3.25
                            10 3.25  16 3.25   9 3.27  67 3.50
   5  0.181  0.847  0.996-  60 2.92  50 3.12   4 3.14  51 3.14  12 3.19  11 3.19  49 3.22   6 3.23
                             1 3.27   3 3.27  67 3.32  65 3.34
   6  0.350  0.683  0.997-  13 3.11  12 3.16   2 3.16  10 3.17  51 3.17   4 3.18  56 3.19  52 3.22
                             7 3.23   5 3.23  16 3.23   1 3.25
   7  0.520  0.520  0.991-  57 3.10  14 3.13  13 3.13  53 3.16  52 3.16  10 3.17  11 3.17   3 3.21
                             2 3.21   8 3.23   6 3.23  68 3.38
   8  0.683  0.350  0.997-  14 3.11  15 3.16   3 3.16  11 3.17  54 3.17   1 3.18  58 3.19  53 3.22
                             7 3.23   9 3.23  17 3.23   4 3.25
   9  0.847  0.181  0.996-  61 2.92  55 3.12   1 3.14  54 3.14  15 3.19  10 3.19  47 3.22   8 3.23
                             4 3.27   2 3.27  66 3.32  65 3.34
  10  0.679  0.849  0.995-  61 2.83  56 3.13  55 3.13  57 3.16   6 3.17   7 3.17   9 3.19  68 3.24
                             4 3.25  11 3.30  16 3.38  65 3.42
  11  0.849  0.679  0.995-  60 2.83  58 3.13  50 3.13  57 3.16   8 3.17   7 3.17   5 3.19  68 3.24
                             1 3.25  10 3.30  17 3.38  65 3.42
  12  0.188  0.685  0.159-  60 2.81  20 3.06   1 3.09  16 3.14   6 3.16  17 3.19   5 3.19  13 3.27
                            69 3.31  67 3.41  66 3.42
  13  0.369  0.528  0.155-  14 3.09   6 3.11   7 3.13   2 3.14  16 3.20  70 3.20  66 3.24  20 3.27
                            12 3.27  68 3.29
  14  0.528  0.369  0.155-  13 3.09   8 3.11   7 3.13   3 3.14  17 3.20  70 3.20  67 3.24  21 3.27
                            15 3.27  68 3.29
  15  0.685  0.188  0.159-  61 2.81  21 3.06   4 3.09  17 3.14   8 3.16  16 3.19   9 3.19  14 3.27
                            71 3.31  66 3.41  67 3.42
  16  0.515  0.859  0.171-  61 2.81  19 3.06  12 3.14  15 3.19  13 3.20   6 3.23   4 3.25  22 3.27
                            68 3.35  10 3.38  20 3.46  67 3.49  71 3.99
  17  0.859  0.515  0.171-  60 2.81  18 3.06  15 3.14  12 3.19  14 3.20   8 3.23   1 3.25  23 3.27
                            68 3.35  11 3.38  21 3.46  66 3.49  69 3.99
  18  0.978  0.482  0.341-  63 2.81  17 3.06  27 3.09  21 3.14  34 3.16  20 3.19  24 3.19  23 3.27
                            66 3.31  71 3.41  69 3.42
  19  0.482  0.978  0.341-  64 2.81  16 3.06  30 3.09  20 3.14  32 3.16  21 3.19  25 3.19  22 3.27
                            67 3.31  69 3.41  71 3.42
  20  0.308  0.652  0.329-  63 2.81  12 3.06  19 3.14  18 3.19  22 3.20  32 3.23  27 3.25  13 3.27
                            70 3.35  28 3.38  16 3.46  69 3.49  66 3.99
  21  0.652  0.308  0.329-  64 2.81  15 3.06  18 3.14  19 3.19  23 3.20  34 3.23  30 3.25  14 3.27
                            70 3.35  29 3.38  17 3.46  71 3.49  67 3.99
  22  0.639  0.798  0.345-  23 3.09  32 3.11  33 3.13  31 3.14  20 3.20  68 3.20  71 3.24  16 3.27
                            19 3.27  70 3.29
  23  0.798  0.639  0.345-  22 3.09  34 3.11  33 3.13  26 3.14  21 3.20  68 3.20  69 3.24  17 3.27
                            18 3.27  70 3.29
  24  0.986  0.320  0.504-  63 2.92  37 3.12  30 3.14  36 3.14  18 3.19  28 3.19  44 3.22  34 3.23
                            27 3.27  31 3.27  71 3.32  72 3.34
  25  0.320  0.986  0.504-  64 2.92  38 3.12  27 3.14  39 3.14  19 3.19  29 3.19  40 3.22  32 3.23
                            30 3.27  26 3.27  69 3.32  72 3.34
  26  0.980  0.813  0.508-  35 3.10  46 3.13  40 3.13  23 3.14  34 3.16  27 3.18  33 3.21  31 3.24
                            25 3.27  72 3.30  69 3.32
  27  0.154  0.659  0.501-  18 3.09  25 3.14  26 3.18  32 3.18  41 3.19  40 3.19  36 3.23  34 3.25
                            28 3.25  20 3.25  24 3.27  69 3.50
  28  0.317  0.488  0.505-  63 2.83  41 3.13  37 3.13  42 3.16  32 3.17  33 3.17  24 3.19  70 3.24
                            27 3.25  29 3.30  20 3.38  72 3.42
  29  0.488  0.317  0.505-  64 2.83  43 3.13  38 3.13  42 3.16  34 3.17  33 3.17  25 3.19  70 3.24
                            30 3.25  28 3.30  21 3.38  72 3.42
  30  0.659  0.154  0.501-  19 3.09  24 3.14  31 3.18  34 3.18  43 3.19  44 3.19  39 3.23  32 3.25
                            29 3.25  21 3.25  25 3.27  71 3.50
  31  0.813  0.980  0.508-  35 3.10  45 3.13  44 3.13  22 3.14  32 3.16  30 3.18  33 3.21  26 3.24
                            24 3.27  72 3.30  71 3.32
  32  0.484  0.817  0.503-  22 3.11  19 3.16  31 3.16  28 3.17  39 3.17  27 3.18  41 3.19  45 3.22
                            33 3.23  25 3.23  20 3.23  30 3.25
  33  0.647  0.647  0.509-  42 3.10  22 3.13  23 3.13  45 3.16  46 3.16  29 3.17  28 3.17  31 3.21
                            26 3.21  32 3.23  34 3.23  70 3.38
  34  0.817  0.484  0.503-  23 3.11  18 3.16  26 3.16  29 3.17  36 3.17  30 3.18  43 3.19  46 3.22
                            33 3.23  24 3.23  21 3.23  27 3.25
  35  0.996  0.996  0.665-  26 3.10  31 3.10  37 3.13  38 3.13  48 3.20  40 3.21  44 3.21  46 3.23
                            45 3.23  50 3.24  55 3.24  72 3.77
  36  0.996  0.496  0.667-  24 3.14  51 3.17  34 3.17  41 3.18  47 3.18  58 3.19  40 3.20  43 3.22
                            46 3.22  27 3.23  44 3.24  37 3.28
  37  0.160  0.322  0.663-  24 3.12  38 3.13  35 3.13  28 3.13  52 3.19  42 3.19  44 3.20  47 3.21
                            48 3.24  41 3.27  36 3.28  72 3.78
  38  0.322  0.160  0.663-  25 3.12  37 3.13  35 3.13  29 3.13  53 3.19  42 3.19  40 3.20  49 3.21
                            48 3.24  43 3.27  39 3.28  72 3.78
  39  0.496  0.996  0.667-  25 3.14  54 3.17  32 3.17  43 3.18  49 3.18  56 3.19  44 3.20  41 3.22
                            45 3.22  30 3.23  40 3.24  38 3.28
  40  0.160  0.828  0.670-  49 3.11  26 3.13  51 3.18  46 3.19  27 3.19  36 3.20  38 3.20  35 3.21
                            50 3.21  25 3.22  41 3.23  39 3.24
  41  0.326  0.661  0.667-  28 3.13  52 3.14  36 3.18  56 3.18  32 3.19  51 3.19  27 3.19  39 3.22
                            45 3.23  40 3.23  42 3.25  37 3.27
  42  0.492  0.492  0.668-  33 3.10  53 3.13  52 3.13  29 3.16  28 3.16  57 3.18  38 3.19  37 3.19
                            45 3.23  46 3.23  41 3.25  43 3.25
  43  0.661  0.326  0.667-  29 3.13  53 3.14  39 3.18  58 3.18  34 3.19  54 3.19  30 3.19  36 3.22
                            46 3.23  44 3.23  42 3.25  38 3.27
  44  0.828  0.160  0.670-  47 3.11  31 3.13  54 3.18  45 3.19  30 3.19  39 3.20  37 3.20  35 3.21
                            55 3.21  24 3.22  43 3.23  36 3.24
  45  0.661  0.828  0.671-  57 3.13  31 3.13  56 3.14  33 3.16  44 3.19  55 3.19  32 3.22  39 3.22
                            41 3.23  35 3.23  42 3.23  46 3.24
  46  0.828  0.661  0.671-  57 3.13  26 3.13  58 3.14  33 3.16  40 3.19  50 3.19  34 3.22  36 3.22
                            43 3.23  35 3.23  42 3.23  45 3.24
  47  0.007  0.338  0.830-  44 3.11   2 3.13  36 3.18  52 3.19   1 3.19  51 3.20  55 3.20  48 3.21
                            37 3.21   9 3.22  58 3.23  54 3.24
  48  0.170  0.170  0.835-   2 3.10   3 3.10  50 3.13  55 3.13  35 3.20  47 3.21  49 3.21  52 3.23
                            53 3.23  37 3.24  38 3.24  65 3.77
[...]
  n-local   -183.73   -183.13   -182.19     -2.17      7.01      3.85
  augment    357.15    357.99    357.41      0.73     -0.72     -0.41
  Kinetic   1861.98   1875.60   1863.88      1.04     -6.08     -3.59
  Total       -0.59     -0.55     -0.67      0.03     -0.28     -0.16
  in kB       -0.56     -0.52     -0.64      0.03     -0.27     -0.15

 VOLUME and BASIS-vectors are now :
  energy-cutoff  :      300.00
  volume of cell :     1681.52
      direct lattice vectors                 reciprocal lattice vectors
    11.163596918 -0.045303311 -0.150268212     0.089822008  0.052383605  0.002419293
    -5.621032277  9.645306873 -0.150268212     0.000454529  0.103979944  0.002419293
    -0.209898347 -0.363554602 15.664819602     0.000865997  0.001499952  0.063883729

  length of vectors
    11.164700134 11.164700134 15.670443594     0.104009078  0.104009078  0.063907203

 FORCES acting on ions
    electron-ion (+dipol)            ewald-force                    non-local-force                 convergence-correction
   0.120E+01 0.107E+01 0.844E+02   -.108E+01 -.129E+01 -.840E+02   -.115E+00 0.221E+00 -.393E+00   -.164E-03 0.188E-03 -.657E-03
   -.567E+01 -.341E+02 0.988E+02   0.546E+01 0.337E+02 -.983E+02   0.212E+00 0.471E+00 -.556E+00   0.916E-04 0.878E-03 -.918E-03
   -.267E+02 -.220E+02 0.988E+02   0.264E+02 0.216E+02 -.983E+02   0.302E+00 0.419E+00 -.556E+00   0.714E-03 0.518E-03 -.918E-03
   0.325E+00 0.157E+01 0.844E+02   -.580E+00 -.158E+01 -.840E+02   0.249E+00 0.112E-01 -.393E+00   0.245E-03 -.485E-04 -.657E-03
   -.402E+02 0.209E+02 0.115E+03   0.398E+02 -.203E+02 -.114E+03   0.452E+00 -.518E+00 -.679E+00   0.555E-03 -.634E-03 -.777E-03
   0.192E+01 0.333E+01 0.732E+02   -.189E+01 -.328E+01 -.733E+02   -.157E-01 -.381E-01 0.156E+00   0.450E-04 0.252E-04 -.503E-03
   0.630E+01 0.109E+02 0.828E+02   -.608E+01 -.105E+02 -.822E+02   -.217E+00 -.377E+00 -.636E+00   -.161E-04 -.280E-04 -.552E-03
   0.192E+01 0.332E+01 0.732E+02   -.189E+01 -.328E+01 -.733E+02   -.252E-01 -.326E-01 0.156E+00   -.656E-06 0.516E-04 -.503E-03
   0.382E+02 -.244E+02 0.115E+03   -.375E+02 0.243E+02 -.114E+03   -.675E+00 0.133E+00 -.679E+00   -.826E-03 0.164E-03 -.777E-03
   0.411E+02 0.269E+02 0.117E+03   -.405E+02 -.268E+02 -.116E+03   -.613E+00 -.107E+00 -.835E+00   -.715E-03 -.302E-03 -.599E-03
   0.274E+01 0.490E+02 0.117E+03   -.295E+01 -.484E+02 -.116E+03   0.214E+00 -.584E+00 -.835E+00   0.957E-04 -.771E-03 -.599E-03
   -.435E+02 0.245E+02 0.548E+02   0.429E+02 -.240E+02 -.544E+02   0.560E+00 -.409E+00 -.394E+00   0.135E-03 -.105E-03 -.499E-03
   0.445E+01 -.364E+02 0.754E+02   -.377E+01 0.367E+02 -.750E+02   -.663E+00 -.284E+00 -.424E+00   0.198E-03 0.397E-03 -.375E-03
   -.337E+02 -.143E+02 0.754E+02   0.337E+02 0.151E+02 -.750E+02   0.853E-01 -.716E+00 -.424E+00   0.245E-03 0.370E-03 -.375E-03
   0.429E+02 -.254E+02 0.548E+02   -.423E+02 0.251E+02 -.544E+02   -.634E+00 0.280E+00 -.394E+00   -.159E-03 0.643E-04 -.499E-03
   0.390E+02 0.264E+02 0.357E+02   -.385E+02 -.261E+02 -.359E+02   -.496E+00 -.256E+00 0.173E+00   0.637E-04 -.187E-03 -.345E-03
   0.335E+01 0.470E+02 0.357E+02   -.336E+01 -.465E+02 -.359E+02   0.264E-01 -.558E+00 0.173E+00   -.194E-03 -.384E-04 -.345E-03
   0.435E+02 -.245E+02 -.548E+02   -.429E+02 0.240E+02 0.544E+02   -.560E+00 0.409E+00 0.394E+00   -.135E-03 0.105E-03 0.499E-03
   -.429E+02 0.254E+02 -.548E+02   0.423E+02 -.251E+02 0.544E+02   0.634E+00 -.280E+00 0.394E+00   0.159E-03 -.642E-04 0.499E-03
   -.335E+01 -.470E+02 -.357E+02   0.336E+01 0.465E+02 0.359E+02   -.264E-01 0.558E+00 -.173E+00   0.194E-03 0.381E-04 0.345E-03
   -.390E+02 -.264E+02 -.357E+02   0.385E+02 0.261E+02 0.359E+02   0.496E+00 0.256E+00 -.173E+00   -.639E-04 0.187E-03 0.345E-03
   0.337E+02 0.143E+02 -.754E+02   -.337E+02 -.151E+02 0.750E+02   -.853E-01 0.716E+00 0.424E+00   -.245E-03 -.370E-03 0.375E-03
   -.445E+01 0.364E+02 -.754E+02   0.377E+01 -.367E+02 0.750E+02   0.663E+00 0.284E+00 0.424E+00   -.198E-03 -.397E-03 0.375E-03
   0.402E+02 -.209E+02 -.115E+03   -.398E+02 0.203E+02 0.114E+03   -.452E+00 0.518E+00 0.679E+00   -.555E-03 0.634E-03 0.777E-03
   -.382E+02 0.244E+02 -.115E+03   0.375E+02 -.243E+02 0.114E+03   0.675E+00 -.133E+00 0.679E+00   0.827E-03 -.164E-03 0.777E-03
   0.567E+01 0.341E+02 -.988E+02   -.546E+01 -.337E+02 0.983E+02   -.212E+00 -.471E+00 0.556E+00   -.914E-04 -.878E-03 0.918E-03
   -.120E+01 -.107E+01 -.844E+02   0.108E+01 0.129E+01 0.840E+02   0.115E+00 -.221E+00 0.393E+00   0.165E-03 -.188E-03 0.657E-03
   -.274E+01 -.490E+02 -.117E+03   0.295E+01 0.484E+02 0.116E+03   -.214E+00 0.584E+00 0.835E+00   -.958E-04 0.771E-03 0.599E-03
   -.411E+02 -.269E+02 -.117E+03   0.405E+02 0.268E+02 0.116E+03   0.613E+00 0.107E+00 0.835E+00   0.715E-03 0.302E-03 0.599E-03
   -.325E+00 -.157E+01 -.844E+02   0.580E+00 0.158E+01 0.840E+02   -.249E+00 -.112E-01 0.393E+00   -.245E-03 0.486E-04 0.657E-03
   0.267E+02 0.220E+02 -.988E+02   -.264E+02 -.216E+02 0.983E+02   -.302E+00 -.419E+00 0.556E+00   -.715E-03 -.518E-03 0.918E-03
   -.192E+01 -.333E+01 -.732E+02   0.189E+01 0.328E+01 0.733E+02   0.252E-01 0.326E-01 -.156E+00   0.434E-06 -.517E-04 0.503E-03
   -.630E+01 -.109E+02 -.828E+02   0.608E+01 0.105E+02 0.822E+02   0.217E+00 0.377E+00 0.636E+00   0.160E-04 0.276E-04 0.552E-03
   -.192E+01 -.333E+01 -.732E+02   0.189E+01 0.328E+01 0.733E+02   0.157E-01 0.381E-01 -.156E+00   -.450E-04 -.255E-04 0.503E-03
   0.461E+01 0.799E+01 -.441E+02   -.455E+01 -.788E+01 0.438E+02   -.679E-01 -.118E+00 0.320E+00   -.163E-03 -.282E-03 0.681E-03
   0.351E+01 -.303E+01 -.323E+02   -.346E+01 0.298E+01 0.324E+02   -.462E-01 0.560E-01 -.283E-01   -.448E-04 0.464E-04 0.220E-03
   0.484E+01 -.102E+02 -.511E+02   -.475E+01 0.101E+02 0.508E+02   -.859E-01 0.101E+00 0.299E+00   -.165E-03 0.379E-03 0.694E-03
   -.112E+02 -.901E+00 -.511E+02   0.111E+02 0.925E+00 0.508E+02   0.131E+00 -.238E-01 0.299E+00   0.411E-03 0.464E-04 0.694E-03
   -.438E+01 0.152E+01 -.323E+02   0.431E+01 -.151E+01 0.324E+02   0.716E-01 -.120E-01 -.283E-01   0.626E-04 -.156E-04 0.220E-03
   -.516E+01 0.664E+01 -.337E+02   0.511E+01 -.668E+01 0.337E+02   0.562E-01 0.395E-01 0.469E-01   0.140E-03 -.179E-03 0.330E-03
   0.775E-01 -.572E+01 -.332E+02   -.210E-01 0.563E+01 0.331E+02   -.493E-01 0.891E-01 0.105E+00   -.372E-05 0.641E-04 0.200E-03
   -.475E+01 -.823E+01 -.379E+02   0.475E+01 0.822E+01 0.379E+02   0.284E-02 0.492E-02 -.102E-01   0.992E-04 0.172E-03 0.306E-03
   -.500E+01 -.279E+01 -.332E+02   0.489E+01 0.280E+01 0.331E+02   0.102E+00 0.183E-02 0.105E+00   0.574E-04 0.288E-04 0.200E-03
   0.833E+01 -.115E+01 -.337E+02   -.834E+01 0.108E+01 0.337E+02   0.605E-02 0.684E-01 0.469E-01   -.226E-03 0.319E-04 0.330E-03
   0.401E+01 0.158E+01 -.279E+02   -.392E+01 -.146E+01 0.278E+02   -.926E-01 -.120E+00 0.948E-01   -.975E-04 -.627E-04 0.187E-03
   -.636E+00 0.427E+01 -.279E+02   0.698E+00 -.413E+01 0.278E+02   -.578E-01 -.140E+00 0.948E-01   -.552E-05 -.116E-03 0.187E-03
   0.516E+01 -.664E+01 0.337E+02   -.511E+01 0.668E+01 -.337E+02   -.562E-01 -.395E-01 -.469E-01   -.140E-03 0.179E-03 -.329E-03
   -.461E+01 -.799E+01 0.441E+02   0.455E+01 0.788E+01 -.438E+02   0.679E-01 0.118E+00 -.320E+00   0.163E-03 0.282E-03 -.681E-03
   -.833E+01 0.115E+01 0.337E+02   0.834E+01 -.108E+01 -.337E+02   -.605E-02 -.684E-01 -.469E-01   0.225E-03 -.318E-04 -.329E-03
   -.484E+01 0.102E+02 0.511E+02   0.475E+01 -.101E+02 -.508E+02   0.859E-01 -.101E+00 -.299E+00   0.166E-03 -.379E-03 -.694E-03
   -.351E+01 0.303E+01 0.323E+02   0.346E+01 -.298E+01 -.324E+02   0.462E-01 -.560E-01 0.283E-01   0.449E-04 -.464E-04 -.220E-03
   0.636E+00 -.427E+01 0.279E+02   -.698E+00 0.413E+01 -.278E+02   0.578E-01 0.140E+00 -.948E-01   0.556E-05 0.116E-03 -.186E-03
   -.401E+01 -.158E+01 0.279E+02   0.392E+01 0.146E+01 -.278E+02   0.926E-01 0.120E+00 -.948E-01   0.973E-04 0.626E-04 -.186E-03
   0.438E+01 -.152E+01 0.323E+02   -.431E+01 0.151E+01 -.324E+02   -.716E-01 0.120E-01 0.283E-01   -.627E-04 0.157E-04 -.220E-03
   0.112E+02 0.901E+00 0.511E+02   -.111E+02 -.925E+00 -.508E+02   -.131E+00 0.238E-01 -.299E+00   -.411E-03 -.462E-04 -.694E-03
   0.500E+01 0.279E+01 0.332E+02   -.489E+01 -.280E+01 -.331E+02   -.102E+00 -.183E-02 -.105E+00   -.575E-04 -.289E-04 -.200E-03
   0.475E+01 0.823E+01 0.379E+02   -.475E+01 -.822E+01 -.379E+02   -.284E-02 -.492E-02 0.102E-01   -.993E-04 -.172E-03 -.306E-03
   -.776E-01 0.572E+01 0.332E+02   0.211E-01 -.563E+01 -.331E+02   0.493E-01 -.891E-01 -.105E+00   0.373E-05 -.642E-04 -.200E-03
   -.163E+03 -.283E+03 0.273E+03   0.164E+03 0.284E+03 -.275E+03   -.589E+00 -.102E+01 0.154E+01   0.203E-02 0.351E-02 0.335E-03
   -.233E+03 0.464E+03 0.488E+03   0.233E+03 -.463E+03 -.488E+03   0.546E+00 -.155E+01 -.872E+00   0.936E-03 -.642E-02 -.862E-03
   0.519E+03 0.302E+02 0.488E+03   -.517E+03 -.299E+02 -.488E+03   -.162E+01 -.303E+00 -.872E+00   -.603E-02 -.240E-02 -.862E-03
   0.163E+03 0.283E+03 -.273E+03   -.164E+03 -.284E+03 0.275E+03   0.589E+00 0.102E+01 -.154E+01   -.203E-02 -.351E-02 -.336E-03
   0.233E+03 -.464E+03 -.488E+03   -.233E+03 0.463E+03 0.488E+03   -.546E+00 0.155E+01 0.872E+00   -.937E-03 0.643E-02 0.860E-03
   -.519E+03 -.302E+02 -.488E+03   0.517E+03 0.299E+02 0.488E+03   0.162E+01 0.303E+00 0.872E+00   0.603E-02 0.240E-02 0.860E-03
   -.515E+02 -.892E+02 0.829E+03   0.513E+02 0.888E+02 -.828E+03   0.216E+00 0.373E+00 -.129E+01   -.790E-03 -.137E-02 -.293E-03
   0.223E+03 -.377E+03 0.433E+03   -.223E+03 0.376E+03 -.432E+03   -.486E-01 0.103E+01 -.640E-01   -.148E-02 0.220E-03 0.799E-03
   -.438E+03 0.483E+01 0.433E+03   0.437E+03 -.531E+01 -.432E+03   0.917E+00 0.473E+00 -.640E-01   0.932E-03 -.117E-02 0.799E-03
   0.218E+03 0.378E+03 0.236E+03   -.218E+03 -.377E+03 -.236E+03   -.260E+00 -.451E+00 -.727E-01   -.498E-03 -.862E-03 -.281E-03
   -.223E+03 0.377E+03 -.433E+03   0.223E+03 -.376E+03 0.432E+03   0.486E-01 -.103E+01 0.640E-01   0.148E-02 -.220E-03 -.799E-03
   -.218E+03 -.378E+03 -.236E+03   0.218E+03 0.377E+03 0.236E+03   0.260E+00 0.451E+00 0.727E-01   0.497E-03 0.861E-03 0.280E-03
   0.438E+03 -.483E+01 -.433E+03   -.437E+03 0.531E+01 0.432E+03   -.917E+00 -.473E+00 0.640E-01   -.933E-03 0.118E-02 -.799E-03
   0.515E+02 0.892E+02 -.829E+03   -.513E+02 -.888E+02 0.828E+03   -.216E+00 -.373E+00 0.129E+01   0.790E-03 0.137E-02 0.292E-03
   0.410E-02 0.710E-02 0.245E-03   -.426E-13 -.114E-12 0.227E-12   -.250E-15 -.133E-14 0.666E-15   0.293E-05 0.507E-05 -.678E-05

 POSITION                                       TOTAL-FORCE (eV/Angst)
     -2.91754      4.53125     15.57505         0.007120     -0.002471     -0.002425
     -0.11297      3.04314     15.45113         0.000555      0.009389      0.004166
      2.69192      1.42373     15.45113         0.007854      0.005175      0.004166
      5.38295     -0.26104     15.57505        -0.005700      0.004931     -0.002425
     -2.94810      7.79925     15.44828         0.001736      0.017996     -0.003686
     -0.13974      6.20794     15.46569         0.007234      0.010297      0.014121
      2.67252      4.62894     15.36923        -0.000243     -0.000421     -0.007446
      5.44611      2.98295     15.46569         0.005300      0.011414      0.014121
      8.22840      1.34649     15.44828         0.014717      0.010501     -0.003686
      2.59668      7.80057     15.35521         0.005203      0.014235      0.007047
      5.45716      6.14908     15.35521         0.009726      0.011624      0.007047
     -1.77977      6.53987      2.35871         0.004175      0.001641     -0.006527
      1.11521      5.01737      2.28653         0.011967      0.001892     -0.000066
      3.78756      3.47448      2.28653        -0.004345      0.011310     -0.000066
      6.55358      1.72861      2.35871        -0.000666      0.004436     -0.006527
      0.88134      8.19922      2.47379         0.002733      0.012496      0.001914
      6.66006      4.86288      2.47379         0.009455      0.008614      0.001914
      8.14115      4.47836      5.12307        -0.004175     -0.001641      0.006527
     -0.19220      9.28962      5.12307         0.000666     -0.004436      0.006527
     -0.29870      6.15535      5.00799        -0.009455     -0.008614     -0.001914
      5.48004      2.81900      5.00799        -0.002733     -0.012496     -0.001914
      2.57382      7.54374      5.19525         0.004345     -0.011310      0.000066
      5.24616      6.00086      5.19525        -0.011967     -0.001892      0.000066
      9.09959      2.85542      7.69832        -0.001736     -0.017996      0.003686
     -2.07693      9.30818      7.69832        -0.014717     -0.010501      0.003686
      6.26446      7.61153      7.69547        -0.000555     -0.009389     -0.004166
     -2.09457      6.16873      7.72182        -0.007120      0.002471      0.002425
      0.69431      4.50560      7.79140        -0.009726     -0.011624     -0.007047
      3.55481      2.85409      7.79140        -0.005203     -0.014235     -0.007047
      6.38956      1.27041      7.72182         0.005700     -0.004931      0.002425
      3.45955      9.23094      7.69547        -0.007854     -0.005175     -0.004166
      0.70538      7.67171      7.68092        -0.005300     -0.011414     -0.014121
      3.47896      6.02573      7.77737         0.000243      0.000421      0.007446
      6.29121      4.44673      7.68092        -0.007234     -0.010297     -0.014121
      5.38213      9.32213     10.12253        -0.003358     -0.005816     -0.009942
      8.18829      4.49581     10.21986        -0.004527      0.002834     -0.001303
     -0.15983      2.85464     10.31579         0.002363     -0.004672     -0.004951
      2.55211      1.28891     10.31579        -0.005228     -0.000290     -0.004951
     -0.20065      9.33917     10.21986         0.004718     -0.002503     -0.001303
     -3.01329      7.73881     10.34615         0.001765     -0.001231      0.004516
     -0.21975      6.12071     10.30588         0.007199     -0.002718     -0.001181
      2.58773      4.48208     10.31513        -0.000391     -0.000677      0.010757
      5.41057      2.87005     10.30588        -0.005953      0.004875     -0.001181
      8.20865      1.25982     10.34615        -0.001949      0.000913      0.004516
      2.58342      7.71681     10.29402        -0.002496      0.003231     -0.000971
      5.39124      6.09571     10.29402         0.004046     -0.000546     -0.000971
     -1.99882      2.96116     12.95073        -0.001765      0.001231     -0.004516
      0.76935      1.33255     13.02408         0.003358      0.005816      0.009942
      3.56385     -0.25045     12.95073         0.001949     -0.000913     -0.004516
     -4.85229      7.84533     12.98108        -0.002363      0.004672      0.004951
     -2.03681      6.15886     12.92674         0.004527     -0.002834      0.001303
      0.76023      4.55897     12.85258        -0.004046      0.000546      0.000971
      3.56807      2.93786     12.85258         0.002496     -0.003231      0.000971
      6.35213      1.31551     12.92674        -0.004718      0.002503      0.001303
      9.22040     -0.27954     12.98108         0.005228      0.000290      0.004951
      0.74092      7.78462     12.84073         0.005953     -0.004875      0.001181
      3.56375      6.17260     12.83148         0.000391      0.000677     -0.010757
      6.37122      4.53396     12.84073        -0.007199      0.002718      0.001181
      1.06068      1.83715      3.80610        -0.000327     -0.000566      0.005285
     -4.34765      7.67572      2.16910         0.018790      0.005118      0.001049
      8.82120      0.07269      2.16910        -0.004962      0.018831      0.001049
      5.30070      9.18108      3.67568         0.000327      0.000566     -0.005285
     -0.45456      3.38780      5.46295        -0.018790     -0.005118     -0.001049
      3.16120      1.30024      5.46295         0.004962     -0.018831     -0.001049
      0.14616      0.25315      0.74212         0.002592      0.004489      0.016548
     -1.49344      3.14333      2.68805        -0.004301      0.001089      0.000243
      3.46892      0.27831      2.68805         0.003094     -0.003180      0.000243
      3.90373      6.76146      2.39220        -0.005175     -0.008964      0.005847
     -3.30877      7.92020      4.94400         0.004301     -0.001089     -0.000243
      2.45765      4.25677      5.08959         0.005175      0.008964     -0.005847
      8.51348      1.09462      4.94400        -0.003094      0.003180     -0.000243
      0.67266      1.16507      7.04020        -0.002592     -0.004489     -0.016548
    total drift:                                0.004105      0.007110      0.000238

 reached required accuracy - stopping structural energy minimisation