 vasp.4.6.28 25Jul05 complex
 executed on             LinuxIFC date 2018.10.08  13:09:53

 INCAR:
 POTCAR:   PAW_PBE Mg 05Jan2001
 POTCAR:   PAW_PBE Zn 06Sep2000
 POTCAR:   PAW_PBE Y_sv 06Sep2000
 POTCAR:   PAW_PBE Mg 05Jan2001
   VRHFIN =Mg: s2p0

   TITEL  = PAW_PBE Mg 05Jan2001
   POMASS =   24.305; ZVAL   =    2.000    mass and valenz
   ENMAX  =  210.012; ENMIN  =  157.509 eV
   QCUT   =   -3.929; QGAM   =    7.858    optimization parameters

   Description
     l     E      TYP  RCUT    TYP  RCUT
     0   .000     23  2.000
     0  2.000     23  2.000
     1   .000     23  2.000
     1  2.000     23  2.000
     2   .000     23  2.000

 POTCAR:   PAW_PBE Zn 06Sep2000
   VRHFIN =Zn: d10 p2

   TITEL  = PAW_PBE Zn 06Sep2000
   POMASS =   65.390; ZVAL   =   12.000    mass and valenz
   ENMAX  =  276.727; ENMIN  =  207.545 eV
   QCUT   =   -4.510; QGAM   =    9.020    optimization parameters

[...]

 POTCAR:   PAW_PBE Y_sv 06Sep2000
   VRHFIN =Y: 4s4p5s4d

   TITEL  = PAW_PBE Y_sv 06Sep2000
   POMASS =   88.906; ZVAL   =   11.000    mass and valenz
   ENMAX  =  211.641; ENMIN  =  158.731 eV
   QCUT   =   -3.944; QGAM   =    7.888    optimization parameters

   Description
     l     E      TYP  RCUT    TYP  RCUT
     0   .000     23  2.600
     0   .000     23  2.600
     1   .000     23  2.600
     1   .000     23  2.600
     2   .000     23  2.600
     2   .000     23  2.600
     3   .000      7   .000

 Optimization of the real space projectors (new method)

 maximal supplied QI-value         = 18.90
 optimisation between [QCUT,QGAM] = [  8.69, 17.57] = [ 21.16, 86.49] Ry
 Optimized for a Real-space Cutoff    1.50 Angstroem

   l    n(q)    QCUT    max X(q) W(low)/X(q) W(high)/X(q)  e(spline)
   0      8     8.693    21.263    0.25E-04    0.57E-05    0.11E-07
   0      8     8.693    32.896    0.17E-03    0.18E-03    0.83E-07
   1      7     8.693    18.024    0.20E-04    0.82E-04    0.23E-07
   1      7     8.693    48.877    0.92E-04    0.21E-03    0.19E-06
 Optimization of the real space projectors (new method)

[...]

   l    n(q)    QCUT    max X(q) W(low)/X(q) W(high)/X(q)  e(spline)
   2      7     8.776     5.523    0.25E-04    0.61E-04    0.37E-07
   2      7     8.776     9.671    0.20E-03    0.41E-03    0.27E-06
   0      8     8.776    11.246    0.21E-04    0.15E-05    0.57E-08
   0      8     8.776    34.692    0.16E-03    0.15E-03    0.68E-07
   1      8     8.776     4.877    0.32E-04    0.71E-04    0.29E-07
   1      8     8.776     6.599    0.91E-04    0.23E-03    0.83E-07
 Optimization of the real space projectors (new method)

 maximal supplied QI-value         = 14.36
 optimisation between [QCUT,QGAM] = [  8.76, 17.67] = [ 21.49, 87.39] Ry
 Optimized for a Real-space Cutoff    1.96 Angstroem

   l    n(q)    QCUT    max X(q) W(low)/X(q) W(high)/X(q)  e(spline)
   0     10     8.761     8.406    0.17E-04    0.25E-05    0.14E-07
   0     10     8.761    10.301    0.37E-04    0.12E-04    0.59E-07
   1     10     8.761     4.485    0.11E-05    0.41E-05    0.34E-07
   1     10     8.761    11.894    0.99E-05    0.55E-04    0.20E-06
   2      9     8.761     4.489    0.16E-04    0.99E-05    0.66E-07
   2      9     8.761    42.100    0.20E-03    0.66E-04    0.63E-06
 PAW_PBE Mg 05Jan2001                   :
 PAW_PBE Zn 06Sep2000                   :
 PAW_PBE Y_sv 06Sep2000                 :

 POSCAR: New structure
  positions in direct lattice
  velocities in cartesian coordinates

 ion  position               nearest neighbor table
   1  0.000  0.165  0.999-  14 3.17  21 3.17  12 3.17   2 3.17   5 3.20   7 3.20 192 3.21 185 3.22
                           184 3.22   4 3.25  11 3.25 205 3.57
   2  0.165  0.000  0.999-  15 3.17  17 3.17  12 3.17   1 3.17   5 3.20   3 3.20 187 3.21 185 3.22
                           186 3.22   6 3.25   8 3.25 205 3.57
   3  0.000  0.668  0.998-  23 3.14  17 3.14 187 3.17 188 3.18 195 3.18  11 3.19   4 3.19  12 3.20
                             2 3.20  10 3.24   8 3.24  13 3.25
   4  0.165  0.502  0.999-  14 3.12 188 3.18  11 3.18 184 3.18   3 3.19  18 3.20 189 3.21   9 3.21
                             8 3.21  13 3.22   5 3.24   1 3.25
   5  0.332  0.332  0.998-  15 3.14  14 3.14 185 3.17 190 3.18 189 3.18  10 3.19   9 3.19   2 3.20
                             1 3.20   6 3.24   4 3.24  19 3.25
   6  0.502  0.165  0.999-  15 3.12 191 3.18   8 3.18 186 3.18   7 3.19  20 3.20 190 3.21  10 3.21
                            11 3.21  16 3.22   5 3.24   2 3.25
   7  0.668  0.000  0.998-  22 3.14  21 3.14 192 3.17 191 3.18 193 3.18   8 3.19   6 3.19  12 3.20
                             1 3.20   9 3.24  11 3.24  16 3.25
   8  0.337  0.835  0.999-  17 3.12 193 3.18   6 3.18 186 3.18   7 3.19  18 3.20 188 3.21   4 3.21
                             9 3.21  16 3.22   3 3.24   2 3.25
   9  0.498  0.664  0.999-  22 3.12 189 3.18 194 3.18  10 3.18   5 3.19  18 3.20 193 3.21   4 3.21
                             8 3.21  19 3.22   7 3.24  12 3.25
  10  0.664  0.498  0.999-  23 3.12 190 3.18 194 3.18   9 3.18   5 3.19  20 3.20 195 3.21   6 3.21
                            11 3.21  19 3.22   3 3.24  12 3.25
  11  0.835  0.337  0.999-  21 3.12 195 3.18   4 3.18 184 3.18   3 3.19  20 3.20 191 3.21   6 3.21
                            10 3.21  13 3.22   7 3.24   1 3.25
  12  0.836  0.836  0.999-  23 3.16  22 3.16   2 3.17   1 3.17   3 3.20   7 3.20 192 3.22 187 3.22
                           194 3.22   9 3.25  10 3.25 205 3.57
  13  0.000  0.502  0.055-  29 3.13  24 3.13  23 3.14  17 3.14  20 3.21  18 3.21  21 3.21  14 3.22
                            11 3.22   4 3.22   3 3.25 206 3.66
  14  0.173  0.342  0.053- 196 2.74   4 3.12  18 3.13  19 3.14   5 3.14   1 3.17  13 3.22  15 3.25
                            24 3.31  21 3.33 205 3.34 207 3.34
  15  0.342  0.173  0.053- 197 2.74   6 3.12  20 3.13  19 3.14   5 3.14   2 3.17  16 3.22  14 3.25
                            25 3.31  17 3.33 205 3.34 207 3.34
  16  0.502  0.000  0.055-  26 3.13  25 3.13  22 3.14  21 3.14  18 3.21  20 3.21  17 3.21  15 3.22
                             8 3.22   6 3.22   7 3.25 208 3.66
  17  0.169  0.827  0.053- 197 2.74   8 3.12  18 3.13  13 3.14   3 3.14   2 3.17  16 3.21  23 3.24
                            26 3.31  15 3.33 205 3.34 206 3.34
  18  0.333  0.667  0.055-  22 3.13  17 3.13  14 3.13  27 3.15  24 3.16  26 3.16   4 3.20   8 3.20
                             9 3.20  16 3.21  13 3.21  19 3.21
  19  0.498  0.498  0.055-  28 3.13  27 3.13  14 3.14  15 3.14  18 3.21  20 3.21  22 3.21  23 3.21
                            10 3.22   9 3.22   5 3.25 207 3.66
  20  0.667  0.333  0.055-  23 3.13  21 3.13  15 3.13  28 3.15  25 3.16  29 3.16   6 3.20  11 3.20
                            10 3.20  13 3.21  16 3.21  19 3.21
  21  0.827  0.169  0.053- 196 2.74  11 3.12  20 3.13  16 3.14   7 3.14   1 3.17  13 3.21  22 3.24
                            29 3.31  14 3.33 205 3.34 208 3.34
  22  0.659  0.832  0.053- 198 2.74   9 3.12  18 3.13   7 3.14  16 3.14  12 3.16  19 3.21  21 3.24
                            27 3.31  23 3.33 205 3.34 208 3.35
  23  0.832  0.659  0.053- 198 2.74  10 3.12  20 3.13   3 3.14  13 3.14  12 3.16  19 3.21  17 3.24
                            28 3.31  22 3.33 205 3.34 206 3.35
  24  0.165  0.512  0.110- 196 2.78  30 3.08  27 3.11  26 3.11  13 3.13  18 3.16  29 3.18  14 3.31
                           209 3.32  31 3.34 207 3.40 206 3.55
  25  0.512  0.165  0.110- 197 2.78  33 3.08  28 3.11  29 3.11  16 3.13  20 3.16  26 3.18  15 3.31
                           210 3.32  32 3.34 207 3.40 208 3.55
  26  0.347  0.835  0.110- 197 2.78  34 3.08  27 3.11  24 3.11  16 3.13  18 3.16  25 3.18  17 3.31
                           210 3.33  30 3.34 206 3.41 208 3.55
  27  0.487  0.653  0.110- 198 2.77  31 3.10  26 3.11  24 3.11  19 3.13  18 3.15  28 3.20  22 3.31
                           211 3.31  34 3.33 208 3.40 207 3.55
  28  0.653  0.487  0.110- 198 2.77  32 3.10  29 3.11  25 3.11  19 3.13  20 3.15  27 3.20  23 3.31
                           211 3.31  35 3.33 206 3.40 207 3.55
  29  0.835  0.347  0.110- 196 2.78  35 3.08  28 3.11  25 3.11  13 3.13  20 3.16  24 3.18  21 3.31
                           209 3.33  33 3.34 208 3.41 206 3.55
  30  0.165  0.652  0.167- 200 2.77  24 3.08  31 3.10  34 3.10  36 3.12  41 3.15  35 3.20  40 3.32
                           206 3.32  26 3.34 210 3.41 209 3.53
  31  0.346  0.512  0.167- 199 2.76  30 3.10  27 3.10  42 3.10  34 3.10  41 3.16  32 3.21 207 3.33
                            24 3.34 209 3.38  37 3.40 211 3.54
  32  0.512  0.346  0.167- 199 2.76  33 3.10  28 3.10  42 3.10  35 3.10  43 3.16  31 3.21 207 3.33
                            25 3.34 210 3.38  38 3.40 211 3.54
  33  0.652  0.165  0.167- 201 2.77  25 3.08  32 3.10  35 3.10  39 3.12  43 3.15  34 3.20  44 3.32
                           208 3.32  29 3.34 209 3.41 210 3.53
  34  0.486  0.833  0.167- 201 2.76  26 3.08  30 3.10  31 3.10  39 3.14  41 3.17  33 3.20  45 3.33
                           208 3.33  27 3.33 211 3.40 210 3.54
  35  0.833  0.486  0.167- 200 2.76  29 3.08  33 3.10  32 3.10  36 3.14  43 3.17  30 3.20  46 3.33
                           206 3.33  28 3.33 211 3.40 209 3.54
  36  0.001  0.500  0.222-  30 3.12  44 3.14  35 3.14  41 3.18  47 3.18  37 3.19  40 3.22  46 3.22
                            43 3.23  50 3.24  57 3.27 209 3.65
  37  0.166  0.334  0.226- 199 2.75  47 3.06  51 3.08  36 3.19  41 3.20  44 3.20  42 3.20  38 3.25
                           212 3.33 209 3.39  31 3.40 213 3.67
  38  0.334  0.166  0.226- 199 2.75  48 3.06  52 3.08  39 3.19  43 3.20  40 3.20  42 3.20  37 3.25
                           212 3.33 210 3.39  32 3.40 213 3.67
  39  0.500  0.001  0.222-  33 3.12  40 3.14  34 3.14  43 3.18  48 3.18  38 3.19  44 3.22  45 3.22
                            41 3.23  53 3.24  55 3.27 210 3.65
  40  0.175  0.834  0.224- 200 2.73  50 3.09  41 3.13  39 3.14  48 3.16  49 3.16  38 3.20  36 3.22
                           210 3.32  30 3.32 212 3.34  46 3.40
  41  0.331  0.666  0.223-  45 3.13  40 3.13  51 3.14  30 3.15  31 3.16  34 3.17  36 3.18  37 3.20
                            50 3.21  42 3.23  39 3.23  55 3.27
  42  0.497  0.497  0.222-  31 3.10  32 3.10  45 3.13  46 3.13  37 3.20  38 3.20  41 3.23  43 3.23
                            51 3.23  52 3.23  56 3.26 211 3.66
  43  0.666  0.331  0.223-  46 3.13  44 3.13  52 3.14  33 3.15  32 3.16  35 3.17  39 3.18  38 3.20
                            53 3.21  42 3.23  36 3.23  57 3.27
  44  0.834  0.175  0.224- 201 2.73  53 3.09  43 3.13  36 3.14  47 3.16  54 3.16  37 3.20  39 3.22
                           209 3.32  33 3.32 212 3.34  45 3.40
  45  0.655  0.822  0.225- 201 2.75  41 3.13  54 3.13  42 3.13  56 3.14  55 3.16  46 3.22  39 3.22
                            34 3.33 211 3.34 212 3.36  44 3.40
  46  0.822  0.655  0.225- 200 2.75  43 3.13  49 3.13  42 3.13  56 3.14  57 3.16  45 3.22  36 3.22
                            35 3.33 211 3.34 212 3.36  40 3.40
  47  0.006  0.342  0.279- 203 3.06  37 3.06  57 3.16 215 3.16  44 3.16  51 3.17  50 3.17  36 3.18
                            53 3.22  58 3.26 213 3.32  54 3.34
[...]
    11.125388965 -0.002429534 -0.000050486     0.089895838  0.051927564  0.000000619
    -5.564798520  9.633654704 -0.000050486     0.000022671  0.103815861  0.000000619
    -0.000160933 -0.000278744 46.722822194     0.000000097  0.000000168  0.021402817

  length of vectors
    11.125389230 11.125389230 46.722822195     0.103815864  0.103815864  0.021402817

 FORCES acting on ions
    electron-ion (+dipol)            ewald-force                    non-local-force                 convergence-correction
   0.577E+01 -.100E+02 0.211E+03   -.565E+01 0.982E+01 -.210E+03   -.114E+00 0.191E+00 -.442E+00   -.124E-04 0.310E-04 -.134E-02
   -.116E+02 -.114E-01 0.211E+03   0.113E+02 0.143E-01 -.210E+03   0.222E+00 -.314E-02 -.442E+00   0.339E-04 0.497E-05 -.134E-02
   -.449E+01 0.768E+01 0.195E+03   0.453E+01 -.776E+01 -.195E+03   -.408E-01 0.773E-01 -.458E-01   0.107E-04 -.118E-04 -.130E-02
   0.102E-01 -.500E+01 0.191E+03   0.224E-01 0.486E+01 -.190E+03   -.316E-01 0.139E+00 -.180E+00   -.649E-05 -.944E-05 -.126E-02
   -.442E+01 -.766E+01 0.195E+03   0.446E+01 0.773E+01 -.195E+03   -.417E-01 -.722E-01 -.467E-01   0.102E-04 0.161E-04 -.130E-02
   -.434E+01 -.249E+01 0.191E+03   0.420E+01 0.245E+01 -.190E+03   0.137E+00 0.424E-01 -.180E+00   -.523E-05 -.107E-04 -.126E-02
   0.889E+01 -.468E-01 0.195E+03   -.898E+01 0.434E-01 -.195E+03   0.874E-01 0.333E-02 -.458E-01   -.165E-04 0.339E-05 -.130E-02
   -.429E+01 0.251E+01 0.191E+03   0.416E+01 -.246E+01 -.190E+03   0.123E+00 -.506E-01 -.178E+00   -.267E-05 0.144E-04 -.126E-02
   0.438E+01 0.253E+01 0.191E+03   -.428E+01 -.243E+01 -.190E+03   -.108E+00 -.100E+00 -.169E+00   0.111E-04 -.170E-04 -.126E-02
   -.307E-02 0.506E+01 0.191E+03   0.374E-01 -.491E+01 -.190E+03   -.332E-01 -.143E+00 -.169E+00   -.204E-04 0.464E-06 -.126E-02
   0.432E+01 -.246E+01 0.191E+03   -.421E+01 0.238E+01 -.190E+03   -.105E+00 0.811E-01 -.178E+00   0.124E-04 0.418E-05 -.126E-02
   0.576E+01 0.997E+01 0.211E+03   -.565E+01 -.979E+01 -.211E+03   -.105E+00 -.182E+00 -.475E+00   -.147E-04 -.255E-04 -.134E-02
   0.109E+01 -.195E+01 0.203E+03   -.124E+01 0.221E+01 -.203E+03   0.151E+00 -.255E+00 -.337E+00   0.200E-04 -.232E-04 -.119E-02
   -.803E+01 -.472E+02 0.235E+03   0.799E+01 0.464E+02 -.234E+03   0.387E-01 0.804E+00 -.956E+00   -.115E-04 0.911E-04 -.123E-02
   -.369E+02 -.306E+02 0.235E+03   0.362E+02 0.301E+02 -.234E+03   0.677E+00 0.435E+00 -.956E+00   0.861E-04 0.348E-04 -.123E-02
   -.223E+01 -.282E-01 0.203E+03   0.253E+01 0.256E-01 -.203E+03   -.296E+00 0.310E-02 -.337E+00   -.309E-04 0.642E-05 -.118E-02
   -.369E+02 0.306E+02 0.235E+03   0.363E+02 -.302E+02 -.234E+03   0.663E+00 -.440E+00 -.963E+00   0.902E-04 -.235E-04 -.122E-02
   0.118E+00 -.169E-01 0.193E+03   -.119E+00 0.128E-01 -.193E+03   0.116E-02 0.394E-02 -.867E-01   -.358E-05 -.753E-05 -.117E-02
   0.120E+01 0.208E+01 0.203E+03   -.135E+01 -.234E+01 -.203E+03   0.153E+00 0.264E+00 -.319E+00   0.460E-05 0.685E-05 -.120E-02
   -.736E-01 0.936E-01 0.193E+03   0.705E-01 -.963E-01 -.193E+03   0.283E-02 0.298E-02 -.867E-01   -.613E-05 -.842E-05 -.117E-02
   0.450E+02 -.166E+02 0.235E+03   -.443E+02 0.163E+02 -.234E+03   -.712E+00 0.354E+00 -.963E+00   -.670E-04 0.649E-04 -.122E-02
   0.450E+02 0.164E+02 0.235E+03   -.443E+02 -.161E+02 -.234E+03   -.717E+00 -.358E+00 -.950E+00   -.669E-04 -.611E-04 -.123E-02
   -.830E+01 0.472E+02 0.235E+03   0.825E+01 -.464E+02 -.234E+03   0.485E-01 -.800E+00 -.950E+00   -.201E-04 -.883E-04 -.123E-02
   -.436E+01 -.514E+02 0.130E+03   0.444E+01 0.506E+02 -.130E+03   -.754E-01 0.817E+00 -.424E+00   0.402E-05 0.617E-04 -.838E-03
   -.423E+02 -.295E+02 0.130E+03   0.416E+02 0.291E+02 -.130E+03   0.745E+00 0.343E+00 -.424E+00   0.512E-04 0.330E-04 -.839E-03
   -.418E+02 0.295E+02 0.130E+03   0.411E+02 -.292E+02 -.130E+03   0.687E+00 -.334E+00 -.415E+00   0.384E-04 -.349E-04 -.834E-03
   0.470E+02 0.215E+02 0.130E+03   -.463E+02 -.210E+02 -.130E+03   -.642E+00 -.479E+00 -.410E+00   -.625E-04 -.252E-04 -.845E-03
   -.490E+01 0.514E+02 0.130E+03   0.500E+01 -.506E+02 -.130E+03   -.940E-01 -.795E+00 -.410E+00   0.846E-05 -.679E-04 -.845E-03
   0.465E+02 -.214E+02 0.130E+03   -.458E+02 0.210E+02 -.130E+03   -.633E+00 0.428E+00 -.415E+00   -.514E-04 0.138E-04 -.834E-03
   -.464E+02 0.207E+02 0.778E+01   0.459E+02 -.203E+02 -.816E+01   0.579E+00 -.386E+00 0.382E+00   0.380E-04 -.134E-04 -.199E-03
   0.501E+01 -.531E+02 0.847E+01   -.505E+01 0.524E+02 -.891E+01   0.412E-01 0.778E+00 0.441E+00   -.201E-04 0.490E-04 -.193E-03
   -.485E+02 -.222E+02 0.847E+01   0.479E+02 0.218E+02 -.891E+01   0.653E+00 0.425E+00 0.441E+00   0.524E-04 0.587E-05 -.194E-03
   0.411E+02 -.299E+02 0.778E+01   -.405E+02 0.296E+02 -.816E+01   -.624E+00 0.308E+00 0.382E+00   -.313E-04 0.243E-04 -.199E-03
   0.421E+02 0.298E+02 0.752E+01   -.414E+02 -.295E+02 -.790E+01   -.709E+00 -.348E+00 0.380E+00   -.453E-04 -.166E-04 -.202E-03
   0.474E+01 0.514E+02 0.752E+01   -.480E+01 -.506E+02 -.790E+01   0.529E-01 -.788E+00 0.380E+00   0.721E-05 -.487E-04 -.201E-03
   0.183E+01 0.502E+00 -.705E+02   -.157E+01 -.873E+00 0.702E+02   -.266E+00 0.371E+00 0.275E+00   -.509E-05 0.263E-04 0.316E-03
   0.131E+02 -.537E+02 -.866E+02   -.130E+02 0.528E+02 0.860E+02   -.555E-01 0.841E+00 0.546E+00   0.188E-04 0.106E-03 0.361E-03
   -.530E+02 -.155E+02 -.866E+02   0.523E+02 0.151E+02 0.860E+02   0.756E+00 0.372E+00 0.546E+00   0.824E-04 0.695E-04 0.360E-03
   -.482E+00 0.184E+01 -.705E+02   0.272E-01 -.179E+01 0.702E+02   0.455E+00 -.449E-01 0.275E+00   0.265E-04 0.866E-05 0.315E-03
   -.488E+02 0.219E+02 -.979E+02   0.481E+02 -.216E+02 0.968E+02   0.633E+00 -.337E+00 0.109E+01   0.881E-04 -.783E-04 0.345E-03
   -.459E-01 -.405E+01 -.601E+02   0.617E-01 0.398E+01 0.601E+02   -.148E-01 0.776E-01 0.377E-02   -.186E-04 -.145E-05 0.293E-03
   -.533E+01 -.922E+01 -.663E+02   0.552E+01 0.956E+01 0.659E+02   -.192E+00 -.333E+00 0.437E+00   -.240E-04 -.409E-04 0.297E-03
   -.349E+01 -.207E+01 -.601E+02   0.341E+01 0.204E+01 0.601E+02   0.746E-01 0.260E-01 0.377E-02   0.822E-05 -.179E-04 0.293E-03
   0.433E+02 -.313E+02 -.979E+02   -.427E+02 0.309E+02 0.968E+02   -.608E+00 0.380E+00 0.109E+01   -.112E-03 0.362E-04 0.346E-03
   0.394E+02 0.323E+02 -.102E+03   -.386E+02 -.318E+02 0.101E+03   -.753E+00 -.455E+00 0.911E+00   -.116E-03 -.140E-04 0.358E-03
   0.825E+01 0.503E+02 -.102E+03   -.823E+01 -.494E+02 0.101E+03   -.175E-01 -.879E+00 0.911E+00   0.451E-04 -.108E-03 0.358E-03
   0.371E+02 -.286E+02 -.554E+02   -.367E+02 0.280E+02 0.560E+02   -.353E+00 0.574E+00 -.564E+00   -.422E-04 0.364E-04 0.740E-03
   -.433E+02 0.178E+02 -.554E+02   0.427E+02 -.178E+02 0.560E+02   0.674E+00 -.191E-01 -.564E+00   0.530E-04 -.183E-04 0.739E-03
   -.377E+01 0.475E+02 -.709E+02   0.401E+01 -.468E+02 0.711E+02   -.235E+00 -.745E+00 -.283E+00   0.288E-04 -.623E-04 0.785E-03
   -.684E+01 0.685E+01 -.749E+02   0.650E+01 -.634E+01 0.753E+02   0.335E+00 -.497E+00 -.370E+00   -.522E-05 -.101E-04 0.723E-03
   0.159E+01 -.436E+02 -.517E+02   -.124E+01 0.428E+02 0.522E+02   -.341E+00 0.757E+00 -.505E+00   -.835E-05 0.290E-04 0.704E-03
   -.385E+02 -.204E+02 -.517E+02   0.377E+02 0.203E+02 0.522E+02   0.826E+00 0.830E-01 -.505E+00   0.291E-04 0.790E-05 0.704E-03
   0.935E+01 -.250E+01 -.749E+02   -.874E+01 0.246E+01 0.753E+02   -.598E+00 0.413E-01 -.370E+00   -.459E-05 -.938E-05 0.723E-03
   0.431E+02 0.205E+02 -.709E+02   -.425E+02 -.199E+02 0.711E+02   -.527E+00 -.576E+00 -.283E+00   -.689E-04 -.550E-05 0.785E-03
   0.395E+01 0.260E+01 -.859E+02   -.384E+01 -.256E+01 0.856E+02   -.108E+00 -.390E-01 0.264E+00   -.117E-04 0.174E-04 0.742E-03
   0.178E+01 0.308E+01 -.794E+02   -.206E+01 -.356E+01 0.799E+02   0.276E+00 0.478E+00 -.521E+00   -.610E-05 -.990E-05 0.777E-03
   0.279E+00 0.473E+01 -.859E+02   -.298E+00 -.461E+01 0.856E+02   0.203E-01 -.113E+00 0.264E+00   0.216E-04 -.207E-05 0.743E-03
   0.334E+02 -.161E+02 -.142E+03   -.330E+02 0.160E+02 0.142E+03   -.384E+00 0.110E+00 0.388E-02   -.113E-04 0.218E-05 0.106E-02
   -.306E+02 0.209E+02 -.142E+03   0.303E+02 -.206E+02 0.142E+03   0.287E+00 -.278E+00 0.388E-02   0.873E-05 -.859E-05 0.106E-02
   -.271E+01 -.371E+02 -.141E+03   0.260E+01 0.367E+02 0.141E+03   0.100E+00 0.402E+00 0.201E-02   -.323E-05 0.151E-04 0.106E-02
[...]
   0.145E+03 -.256E+03 -.923E+03   -.143E+03 0.254E+03 0.922E+03   -.134E+01 0.213E+01 0.128E+01   -.317E-03 0.351E-03 0.674E-02
   -.294E+03 -.301E+01 -.923E+03   0.292E+03 0.311E+01 0.922E+03   0.252E+01 -.974E-01 0.128E+01   0.460E-03 -.929E-04 0.674E-02
   -.268E-01 -.468E-01 0.133E+04   0.295E-01 0.520E-01 -.133E+04   -.350E-02 -.606E-02 -.165E+01   0.107E-04 0.130E-04 -.593E-02
   -.189E+03 0.325E+03 0.719E+03   0.189E+03 -.324E+03 -.718E+03   0.710E+00 -.106E+01 -.249E+00   0.151E-03 -.452E-05 -.388E-02
   -.188E+03 -.325E+03 0.722E+03   0.187E+03 0.324E+03 -.722E+03   0.674E+00 0.117E+01 -.474E+00   0.122E-04 0.608E-05 -.408E-02
   0.376E+03 -.161E+01 0.719E+03   -.375E+03 0.152E+01 -.718E+03   -.128E+01 0.838E-01 -.249E+00   -.897E-04 0.124E-03 -.388E-02
   0.194E+03 -.323E+03 0.403E+02   -.194E+03 0.322E+03 -.407E+02   -.729E+00 0.104E+01 0.356E+00   -.359E-04 0.111E-05 -.180E-02
   -.377E+03 0.678E+01 0.403E+02   0.376E+03 -.667E+01 -.407E+02   0.126E+01 -.113E+00 0.356E+00   0.280E-04 -.243E-04 -.180E-02
   0.188E+03 0.325E+03 0.383E+02   -.187E+03 -.324E+03 -.386E+02   -.670E+00 -.116E+01 0.309E+00   0.487E-04 0.955E-04 -.181E-02
   0.148E+02 0.256E+02 -.524E+03   -.148E+02 -.256E+02 0.523E+03   0.118E-01 0.205E-01 0.119E+01   0.962E-04 0.175E-03 0.676E-03
   -.177E+02 -.307E+02 -.308E+03   0.177E+02 0.307E+02 0.310E+03   0.171E-01 0.296E-01 -.158E+01   0.164E-04 0.407E-04 0.453E-02
   -.148E+03 -.257E+03 -.800E+03   0.147E+03 0.255E+03 0.800E+03   0.634E+00 0.110E+01 0.393E+00   0.647E-04 0.116E-03 0.592E-02
   0.303E+03 -.521E+01 -.803E+03   -.301E+03 0.516E+01 0.803E+03   -.127E+01 0.534E-01 0.228E+00   -.102E-03 0.105E-04 0.580E-02
   -.156E+03 0.259E+03 -.803E+03   0.155E+03 -.258E+03 0.803E+03   0.681E+00 -.107E+01 0.228E+00   0.572E-04 -.892E-04 0.580E-02
   -.264E-01 -.490E-01 -.312E+01   -.398E-12 -.227E-12 -.387E-11   0.300E-01 0.520E-01 0.310E+01   0.815E-04 0.174E-03 0.102E-02

 POSITION                                       TOTAL-FORCE (eV/Angst)
     -0.91465      1.58664     46.69365        -0.000513      0.000402      0.000032
      1.83139      0.00121     46.69365         0.000605     -0.000243      0.000032
     -3.71785      6.43692     46.63565         0.001296     -0.002343      0.000191
     -0.95448      4.83544     46.66361         0.001010     -0.002531     -0.002070
      1.84574      3.19691     46.63410         0.001048      0.001816     -0.000234
      4.66485      1.59112     46.66361        -0.002697     -0.000391     -0.002070
      7.43345     -0.00130     46.63565        -0.002677     -0.000049      0.000191
     -0.89916      8.04360     46.66175        -0.002588     -0.000795     -0.001506
      1.85150      6.39062     46.66204         0.000167      0.001413     -0.002835
      4.60868      4.79876     46.66204         0.001141      0.000851     -0.002835
      7.41554      3.24311     46.66175         0.000605     -0.002639     -0.001506
      4.64601      8.04712     46.69715        -0.001077     -0.001865     -0.000882
     -2.79212      4.83477      2.57930        -0.001109      0.002823     -0.005430
      0.02510      3.28957      2.46814         0.000954      0.000937     -0.000914
      2.83631      1.66652      2.46814         0.000334      0.001295     -0.000914
      5.58310     -0.00066      2.57930         0.003000      0.000451     -0.005430
     -2.72738      7.96815      2.46864        -0.000439     -0.003579     -0.002200
     -0.00138      6.42303      2.55097         0.000375     -0.000090     -0.000746
      2.77065      4.79891      2.58000        -0.000010     -0.000018     -0.003461
      5.56320      3.21032      2.55097        -0.000266      0.000280     -0.000746
      8.26431      1.62210      2.46864        -0.002880     -0.002170     -0.002200
      2.69963      8.01079      2.46448        -0.003009      0.000306     -0.001601
      5.58774      6.34334      2.46448         0.001769     -0.002453     -0.001601
     -1.01055      4.93615      5.14772         0.000483      0.001359      0.000055
      4.78011      1.59291      5.14772         0.000935      0.001097      0.000055
     -0.78247      8.04267      5.14753         0.000350     -0.003177      0.000679
      1.78446      6.29286      5.14547        -0.003519     -0.000666     -0.001289
      4.55754      4.69181      5.14547         0.001182     -0.003381     -0.001289
      7.35639      3.34370      5.14753        -0.002926     -0.001286      0.000679
     -1.79205      6.28488      7.80785         0.001407     -0.000234      0.001078
      0.99425      4.93283      7.81523         0.000301      0.000158      0.001535
      3.77483      3.32746      7.81523        -0.000014      0.000340      0.001535
      6.33889      1.59048      7.80785        -0.000906      0.001101      0.001078
      0.76876      8.02711      7.80650         0.001158     -0.003465      0.000050
      6.56730      4.67932      7.80650        -0.003580     -0.000729      0.000050
     -2.77328      4.81597     10.38481         0.000476      0.000163      0.002769
     -0.01586      3.21841     10.56647         0.004599     -0.003252      0.003313
      2.79516      1.59547     10.56647        -0.005116      0.002357      0.003313
      5.55739      0.00625     10.38481        -0.000097      0.000493      0.002769
     -2.69997      8.03493     10.48252         0.002623     -0.001861      0.001790
     -0.02379      6.41052     10.41771         0.001030      0.001255     -0.003937
      2.76365      4.78678     10.35623         0.000297      0.000514      0.005706
      5.56357      3.18465     10.41771         0.000572      0.001520     -0.003937
      8.30844      1.67922     10.48252        -0.002923      0.001341      0.001790
      2.71419      7.91665     10.50094        -0.001425      0.000134      0.000082
      5.49892      6.30889     10.50094         0.000829     -0.001167      0.000082
     -1.84161      3.29677     13.02032         0.000437      0.003049      0.004894
      3.77590      0.05350     13.02032         0.002422      0.001903      0.004894
      6.42545      8.04771     12.93513         0.001545      0.001311     -0.003358
     -1.89343      6.47035     13.02807        -0.001684      0.007138      0.001870
      0.90340      4.87677     12.99936         0.001945      0.000984      0.008919
      3.77171      3.22075     12.99936        -0.000121      0.002177      0.008919
      6.55020      1.59542     13.02807         0.007024      0.002111      0.001870
      3.75679      9.58846     12.93513         0.000363      0.001993     -0.003358
      0.91020      8.05216     13.09023         0.004133      0.003737     -0.002315
      3.67750      6.36962     13.05405        -0.001147     -0.001987      0.002863
      6.51828      4.81434     13.09023         0.001170      0.005448     -0.002315
     -2.80633      4.92717     15.66982         0.004823      0.001495      0.002754
      5.67022      0.03323     15.66982        -0.001117      0.004924      0.002754
     -0.08161      6.50268     15.65230        -0.002557     -0.003638      0.003316
[...]
      5.27631      9.13884     15.60049         0.000771      0.001336     -0.006684
     -0.28604      3.70985     15.61861         0.000990     -0.004211      0.001847
      3.35584      1.60721     15.61861        -0.004142     -0.001248      0.001847
      5.55980      9.62985      3.03896        -0.000548     -0.000949     -0.003306
      7.14916      6.87975      5.37419         0.000536     -0.003825      0.000777
      1.58912      2.75242      5.37409         0.001140      0.001975      0.002442
      2.38345      9.63123      5.37419        -0.003581     -0.001448      0.000777
     -1.59045      2.77055      7.60126        -0.001780      0.003013     -0.002177
      3.19460      0.00790      7.60126         0.003500     -0.000035     -0.002177
      3.95793      6.85534      7.58332        -0.000894     -0.001548     -0.002793
      5.54361      9.60181      9.85239        -0.000450     -0.000779     -0.004123
      0.94051      1.62901     13.73123         0.003688      0.006388     -0.002633
      2.63052      4.55620     15.64254        -0.000869     -0.001505     -0.012138
      8.64442      1.60027     15.60728         0.002505      0.000462     -0.003566
     -2.93634      8.28642     15.60728        -0.000853      0.002400     -0.003566
    total drift:                                0.003706      0.003158     -0.014570

 reached required accuracy - stopping structural energy minimisation